FeNiCoMn_SQSbcc12_Ni28                  
   1.00000000000000     
    -6.3111177209719624   -3.7662957085610054    5.4063614495710048
     5.0105348973278048    5.0118739009504019    7.1518229996229055
    -5.0387000620584921    5.0632718902498075   -7.1786411496179374
   Fe   Ni   Co   Mn
    12    28    12    12
Direct
  0.7563378619353583  0.2525602902927094  0.8136425133695303
  0.7521193515403078  0.2465317970896441  0.3166023535174330
  0.7556595491653125  0.2500911105247728  0.0630147499733263
  0.4997790313201015  0.9892102937074985  0.8731208966370062
  0.4921114956478612  0.5022917986626453  0.1218475240054430
  0.2491555473223613  0.5014245985848668  0.6866589192683704
  0.2443701640591280  0.9975477973288646  0.4359368783750691
  0.2588799322458564  0.5151744091464685  0.4431515301974171
  0.9952850349634077  0.9942247611862294  0.5071998516441287
  0.9976413678583524  0.2484903809991248  0.5079089377881726
  0.9931273851338009  0.9953566287969727  0.2536646775677989
  0.0049912529154728  0.5057607870734174  0.0043376130085220
  0.7481974030311120  0.0043120781334056  0.8138048345057548
  0.7522154170773133  0.5033344812334966  0.8144271514675033
  0.7473012779036158  0.7482182879134861  0.8105004369841871
  0.7514519234713201  0.0028338362399648  0.5629223395490146
  0.7512833749045065  0.2510556709420839  0.5660387507491604
  0.7534767844616267  0.4991638118956047  0.3108885991672193
  0.7478558394555336  0.4969358499988101  0.0582285679500240
  0.5022291410894152  0.5018393755626858  0.8742130325946038
  0.4982301279323575  0.7453493457941758  0.8721621714240009
  0.4997497071993480  0.5000034665378920  0.6198007236809984
  0.4995577303945299  0.7535374221804002  0.6253023424652984
  0.5020440134811958  0.2510311285072758  0.3733990814874105
  0.5048120128329912  0.5013631256188472  0.3743941637116148
  0.4989897366000297  0.9976310545009990  0.1224392135374094
  0.4985133529088796  0.7502282343978189  0.1240473412222757
  0.2481493690397130  0.0013003576965316  0.9377961419180605
  0.2502894053618795  0.2515652115955151  0.9422811069107032
  0.2489232856668610  0.5002041040992504  0.9361310793446687
  0.2484668319180273  0.7476783710030813  0.9348664471115212
  0.2506888580077787  0.9962985230314346  0.6898202436232047
  0.2507465721703086  0.7523776976112624  0.1899131647901451
  0.0007342977638370  0.0006930712975619  0.7530915395953293
  0.0005973942126788  0.2504026024407651  0.7537220336533567
  0.9974664270660123  0.4965642405766210  0.7488608527938806
  0.9988376825947971  0.4991230773476722  0.4991888054670083
  0.9987703666348198  0.5001436075620819  0.2503344948357987
  0.0000195715685109  0.7483062930624763  0.2483947033303986
  0.0009672312681743  0.2523010187773969  0.0016641147907898
  0.7465308207008187  0.4931480962558635  0.5603506678044158
  0.7440379091639802  1.0014984231079995  0.3128777877631159
  0.7439291593478039  0.9968731715578280  0.0627188338054439
  0.7497928316517859  0.7530158037569393  0.0568568497804034
  0.5064515263092184  0.9962105934098247  0.3746568702014134
  0.4929566143285093  0.7472873915624955  0.3684978863074557
  0.2534966370172611  0.7482653486824119  0.6844533110638893
  0.2505834845096287  0.2546052237080103  0.4396047834045002
  0.2464384079347886  0.7508056047959151  0.4353456193680425
  0.2489254725586650  0.5038639659753980  0.1901070231290337
  0.0073810577958827  0.7474482051615631  0.4978663878249748
  0.9951193827412568  0.7497089406035614  0.0016824492916471
  0.7488160000717864  0.7541501570948524  0.5631607100481412
  0.7498108278389399  0.7495427161052457  0.3026043224538955
  0.4999980375423714  0.2471493440600083  0.8706671495469500
  0.4996639670104986  0.9974494587232742  0.6226857064920212
  0.5010359095102359  0.2571516346870651  0.6198555585007754
  0.5038313469294099  0.2467969786675930  0.1229729619722584
  0.2534374523305471  0.2512311585238661  0.6990565891444148
  0.2532528543599055  0.9979208230228378  0.1857823564963206
  0.2546980007706178  0.2590560143837289  0.1902094935095822
  0.0062341725954031  0.7421228660030429  0.7487627805163712
  0.0068406728089642  0.2563453269125386  0.2601256328631814
  0.9867143440472544  0.9958927542863077  0.9933783446981922
 
  0.00000000E+00  0.00000000E+00  0.00000000E+00
  0.00000000E+00  0.00000000E+00  0.00000000E+00
  0.00000000E+00  0.00000000E+00  0.00000000E+00
  0.00000000E+00  0.00000000E+00  0.00000000E+00
  0.00000000E+00  0.00000000E+00  0.00000000E+00
  0.00000000E+00  0.00000000E+00  0.00000000E+00
  0.00000000E+00  0.00000000E+00  0.00000000E+00
  0.00000000E+00  0.00000000E+00  0.00000000E+00
  0.00000000E+00  0.00000000E+00  0.00000000E+00
  0.00000000E+00  0.00000000E+00  0.00000000E+00
  0.00000000E+00  0.00000000E+00  0.00000000E+00
  0.00000000E+00  0.00000000E+00  0.00000000E+00
  0.00000000E+00  0.00000000E+00  0.00000000E+00
  0.00000000E+00  0.00000000E+00  0.00000000E+00
  0.00000000E+00  0.00000000E+00  0.00000000E+00
  0.00000000E+00  0.00000000E+00  0.00000000E+00
  0.00000000E+00  0.00000000E+00  0.00000000E+00
  0.00000000E+00  0.00000000E+00  0.00000000E+00
  0.00000000E+00  0.00000000E+00  0.00000000E+00
  0.00000000E+00  0.00000000E+00  0.00000000E+00
  0.00000000E+00  0.00000000E+00  0.00000000E+00
  0.00000000E+00  0.00000000E+00  0.00000000E+00
  0.00000000E+00  0.00000000E+00  0.00000000E+00
  0.00000000E+00  0.00000000E+00  0.00000000E+00
  0.00000000E+00  0.00000000E+00  0.00000000E+00
  0.00000000E+00  0.00000000E+00  0.00000000E+00
  0.00000000E+00  0.00000000E+00  0.00000000E+00
  0.00000000E+00  0.00000000E+00  0.00000000E+00
  0.00000000E+00  0.00000000E+00  0.00000000E+00
  0.00000000E+00  0.00000000E+00  0.00000000E+00
  0.00000000E+00  0.00000000E+00  0.00000000E+00
  0.00000000E+00  0.00000000E+00  0.00000000E+00
  0.00000000E+00  0.00000000E+00  0.00000000E+00
  0.00000000E+00  0.00000000E+00  0.00000000E+00
  0.00000000E+00  0.00000000E+00  0.00000000E+00
  0.00000000E+00  0.00000000E+00  0.00000000E+00
  0.00000000E+00  0.00000000E+00  0.00000000E+00
  0.00000000E+00  0.00000000E+00  0.00000000E+00
  0.00000000E+00  0.00000000E+00  0.00000000E+00
  0.00000000E+00  0.00000000E+00  0.00000000E+00
  0.00000000E+00  0.00000000E+00  0.00000000E+00
  0.00000000E+00  0.00000000E+00  0.00000000E+00
  0.00000000E+00  0.00000000E+00  0.00000000E+00
  0.00000000E+00  0.00000000E+00  0.00000000E+00
  0.00000000E+00  0.00000000E+00  0.00000000E+00
  0.00000000E+00  0.00000000E+00  0.00000000E+00
  0.00000000E+00  0.00000000E+00  0.00000000E+00
  0.00000000E+00  0.00000000E+00  0.00000000E+00
  0.00000000E+00  0.00000000E+00  0.00000000E+00
  0.00000000E+00  0.00000000E+00  0.00000000E+00
  0.00000000E+00  0.00000000E+00  0.00000000E+00
  0.00000000E+00  0.00000000E+00  0.00000000E+00
  0.00000000E+00  0.00000000E+00  0.00000000E+00
  0.00000000E+00  0.00000000E+00  0.00000000E+00
  0.00000000E+00  0.00000000E+00  0.00000000E+00
  0.00000000E+00  0.00000000E+00  0.00000000E+00
  0.00000000E+00  0.00000000E+00  0.00000000E+00
  0.00000000E+00  0.00000000E+00  0.00000000E+00
  0.00000000E+00  0.00000000E+00  0.00000000E+00
  0.00000000E+00  0.00000000E+00  0.00000000E+00
  0.00000000E+00  0.00000000E+00  0.00000000E+00
  0.00000000E+00  0.00000000E+00  0.00000000E+00
  0.00000000E+00  0.00000000E+00  0.00000000E+00
  0.00000000E+00  0.00000000E+00  0.00000000E+00
