FeNiCrPd_SQSfcc64_12_Fe28               
   3.80000000000000     
    -1.9483993426130808    1.4212120806500383    0.4783258716346552
     1.9515174903862036    1.4241291211722082    0.4819152533298630
    -0.0018743717272649    0.4851943323709820   -2.4343852375935384
   Fe   Ni   Cr   Pd
    28    12    12    12
Direct
  0.9047286413903567  0.1603074299231886  0.8142119723490028
  0.6290227468466092  0.1195263377227372  0.7513968840218205
  0.6933978416734092  0.6945438229744161  0.8776965302166724
  0.9723535047137575  0.2247836978606825  0.4426437564426454
  0.1854705966946876  0.1858678002663004  0.8836970193485915
  0.3510754847866272  0.1006431627761623  0.6963900191038307
  0.4360062457856503  0.9392492908842323  0.8749147853607873
  0.5306461706955947  0.2779392588209123  0.5644686521638167
  0.7095303282980118  0.4550851789176403  0.4336040120722457
  0.7490746403558970  0.7476887827617492  0.4920511906167546
  0.1234570023845655  0.6263832054088059  0.7530324427885867
  0.1541889672531739  0.9086782424848814  0.8059151814365845
  0.2685263719557455  0.5197184342229054  0.5666145755836477
  0.3010337546146589  0.8065519165985087  0.6299888966263607
  0.4352996514042520  0.4325537854249059  0.3641864454628470
  0.4535628668632390  0.7066978511604801  0.4359274528819128
  0.6205437218267642  0.6177801344257924  0.2502503751173054
  0.6514448128663591  0.9007270147419906  0.3174314105030898
  0.7483434340127868  0.2421717049770837  0.9959533287810096
  0.8119364784549807  0.8133449971375244  0.1314658650034057
  0.0094646684877255  0.5099102208245313  0.5060750709686593
  0.1815544963521186  0.6839370066294852  0.3760688728046825
  0.3188930296130151  0.3211363406039638  0.1184113576524622
  0.3398990676468544  0.5966478510560039  0.1841369764908589
  0.3733970121113026  0.8661682965143968  0.2452833793057328
  0.4947018737851505  0.4960752730322348  0.9967926865323231
  0.9996501223181611  0.9947049963672245  0.9887032608499235
  0.2450972306612245  0.7494757374860238  0.9881203111107822
  0.9460674832345916  0.4365285657210022  0.8774590771792484
  0.4673742718911110  0.2126386512772246  0.9433513641227106
  0.7240764927282168  0.9699155028663603  0.9339469437578745
  0.7885302527983789  0.0397884145060825  0.5584592467212809
  0.2202679334380418  0.4710937674539726  0.9383337929264829
  0.9010433118432432  0.6594347009962046  0.3239801437652366
  0.9304393557034658  0.9366734213175908  0.3855228027729498
  0.5605961397225757  0.0613834179772477  0.1220051396881298
  0.5909313517999927  0.3380514180028308  0.1833316130459151
  0.0273042958461243  0.7836882364350766  0.5630957204653020
  0.1671662118557803  0.4173709518058168  0.3146682625283025
  0.0755300514126978  0.5642280975856665  0.1219444690843092
  0.9777370764799752  0.7190190782165991  0.9372553974983843
  0.8283063415782727  0.3103808870451356  0.6297472659278182
  0.8853671172194419  0.8947165998488857  0.7444499801435253
  0.3572639397093973  0.3512219619543795  0.7628932756008744
  0.3938240564522144  0.6545584055959238  0.8109378326257874
  0.6830024020219271  0.1897983059365842  0.3696173981723554
  0.0677669713084468  0.0829941053272938  0.6312454251582409
  0.0978609405680466  0.3480635148265707  0.6995544821939479
  0.2587727538184847  0.2638146626134625  0.4980573932818008
  0.4157689458855497  0.1535322507366460  0.3033969373697792
  0.2849685847103814  0.0289791678022592  0.0544103056179394
  0.0369767504783798  0.2851637307905964  0.0527230279660361
  0.6525669954970922  0.3970265433939623  0.8150423233149399
  0.8438993355376647  0.5982889646032351  0.6843908415860380
  0.5007100428039913  0.9990572114956677  0.4982074138650287
  0.5472753111270875  0.5512900017737172  0.6210687358311888
  0.5963980013833439  0.8414460506235194  0.6888055733753590
  0.8394444346839648  0.0878282103483928  0.1855100588107430
  0.8843061729487126  0.3820334725279490  0.2571520481457835
  0.7854835653706211  0.5377308249047916  0.0657726945745376
  0.1308870222193177  0.1380361574629197  0.2461564144993688
  0.2155775892095238  0.9731274305407976  0.4475669207102221
  0.5330380345156199  0.7823506778896744  0.0580929038837472
  0.0911696983456444  0.8404488657911627  0.1864140621924507
 
  0.00000000E+00  0.00000000E+00  0.00000000E+00
  0.00000000E+00  0.00000000E+00  0.00000000E+00
  0.00000000E+00  0.00000000E+00  0.00000000E+00
  0.00000000E+00  0.00000000E+00  0.00000000E+00
  0.00000000E+00  0.00000000E+00  0.00000000E+00
  0.00000000E+00  0.00000000E+00  0.00000000E+00
  0.00000000E+00  0.00000000E+00  0.00000000E+00
  0.00000000E+00  0.00000000E+00  0.00000000E+00
  0.00000000E+00  0.00000000E+00  0.00000000E+00
  0.00000000E+00  0.00000000E+00  0.00000000E+00
  0.00000000E+00  0.00000000E+00  0.00000000E+00
  0.00000000E+00  0.00000000E+00  0.00000000E+00
  0.00000000E+00  0.00000000E+00  0.00000000E+00
  0.00000000E+00  0.00000000E+00  0.00000000E+00
  0.00000000E+00  0.00000000E+00  0.00000000E+00
  0.00000000E+00  0.00000000E+00  0.00000000E+00
  0.00000000E+00  0.00000000E+00  0.00000000E+00
  0.00000000E+00  0.00000000E+00  0.00000000E+00
  0.00000000E+00  0.00000000E+00  0.00000000E+00
  0.00000000E+00  0.00000000E+00  0.00000000E+00
  0.00000000E+00  0.00000000E+00  0.00000000E+00
  0.00000000E+00  0.00000000E+00  0.00000000E+00
  0.00000000E+00  0.00000000E+00  0.00000000E+00
  0.00000000E+00  0.00000000E+00  0.00000000E+00
  0.00000000E+00  0.00000000E+00  0.00000000E+00
  0.00000000E+00  0.00000000E+00  0.00000000E+00
  0.00000000E+00  0.00000000E+00  0.00000000E+00
  0.00000000E+00  0.00000000E+00  0.00000000E+00
  0.00000000E+00  0.00000000E+00  0.00000000E+00
  0.00000000E+00  0.00000000E+00  0.00000000E+00
  0.00000000E+00  0.00000000E+00  0.00000000E+00
  0.00000000E+00  0.00000000E+00  0.00000000E+00
  0.00000000E+00  0.00000000E+00  0.00000000E+00
  0.00000000E+00  0.00000000E+00  0.00000000E+00
  0.00000000E+00  0.00000000E+00  0.00000000E+00
  0.00000000E+00  0.00000000E+00  0.00000000E+00
  0.00000000E+00  0.00000000E+00  0.00000000E+00
  0.00000000E+00  0.00000000E+00  0.00000000E+00
  0.00000000E+00  0.00000000E+00  0.00000000E+00
  0.00000000E+00  0.00000000E+00  0.00000000E+00
  0.00000000E+00  0.00000000E+00  0.00000000E+00
  0.00000000E+00  0.00000000E+00  0.00000000E+00
  0.00000000E+00  0.00000000E+00  0.00000000E+00
  0.00000000E+00  0.00000000E+00  0.00000000E+00
  0.00000000E+00  0.00000000E+00  0.00000000E+00
  0.00000000E+00  0.00000000E+00  0.00000000E+00
  0.00000000E+00  0.00000000E+00  0.00000000E+00
  0.00000000E+00  0.00000000E+00  0.00000000E+00
  0.00000000E+00  0.00000000E+00  0.00000000E+00
  0.00000000E+00  0.00000000E+00  0.00000000E+00
  0.00000000E+00  0.00000000E+00  0.00000000E+00
  0.00000000E+00  0.00000000E+00  0.00000000E+00
  0.00000000E+00  0.00000000E+00  0.00000000E+00
  0.00000000E+00  0.00000000E+00  0.00000000E+00
  0.00000000E+00  0.00000000E+00  0.00000000E+00
  0.00000000E+00  0.00000000E+00  0.00000000E+00
  0.00000000E+00  0.00000000E+00  0.00000000E+00
  0.00000000E+00  0.00000000E+00  0.00000000E+00
  0.00000000E+00  0.00000000E+00  0.00000000E+00
  0.00000000E+00  0.00000000E+00  0.00000000E+00
  0.00000000E+00  0.00000000E+00  0.00000000E+00
  0.00000000E+00  0.00000000E+00  0.00000000E+00
  0.00000000E+00  0.00000000E+00  0.00000000E+00
  0.00000000E+00  0.00000000E+00  0.00000000E+00
