FeNiCoMn_SQSfcc64_17_Fe13               
   3.50000000000000     
     0.0024923944325088   -2.0475046958431573   -1.0269650449102317
    -1.0106877517397290    1.0195272861400608   -2.0429584095778530
     3.0313067296100051    1.0198453779444643    0.0004880598930459
   Fe   Ni   Co   Mn
    13    17    17    17
Direct
  0.3721846242940609  0.8124686722027044  0.4376177268170867
  0.1296873504125801  0.9313691982249958  0.8131466207269304
  0.4413490022100526  0.5300619230495741  0.3448668572652210
  0.3109334742944708  0.5991205800909823  0.5287093958854716
  0.1229951587911596  0.4332901556243792  0.3109231446294730
  0.8887901197301944  0.5672640943276916  0.6882174197865140
  0.8078523487777226  0.3489785802331744  0.2854448656317559
  0.6286133219761787  0.1855649008996967  0.0614840479234718
  0.3723184449360878  0.3067813988332799  0.4341874512631547
  0.8750073623931948  0.0699278964438339  0.1882879376294429
  0.7566523468337285  0.1301784823962907  0.3769139680271330
  0.5058729120846077  0.2448013550644192  0.7530297104291430
  0.1792831848161381  0.1524969799181471  0.7181326651046865
  0.5655484044649220  0.9675847260699404  0.1555662198978905
  0.9387541422358582  0.7843416022061214  0.0901078887372897
  0.2500111173869002  0.8761801481779140  0.6256413420451090
  0.3108792764196971  0.5930634377370765  0.0304625979053231
  0.0595496721938600  0.7189674532509304  0.4081938938922444
  0.0045412417102763  0.5020743985455554  0.0040484512724253
  0.9438583475790584  0.7805007422246597  0.5936122894320249
  0.1915729972536194  0.6571263379081705  0.7192761270611807
  0.0620503277340193  0.7176913546943050  0.9060341957890842
  0.9961495479463268  0.5004206062392051  0.4988834519832702
  0.9362990801686989  0.2867734657008841  0.0928819746900105
  0.4415828927039115  0.5340318000963086  0.8461569259416969
  0.1273694263424389  0.4403682238138196  0.8140555901781631
  0.1862996118041347  0.1533652385339312  0.2173948334889230
  0.6220009618184801  0.1871730322666210  0.5640042725558020
  0.3122556586751022  0.0948834188351674  0.5323481564020213
  0.0006627482413996  0.0029927301926828  0.5024179503386812
  0.6202863995259605  0.6894745329680482  0.0613612965628128
  0.1925534115588881  0.6509239749730269  0.2210514622403813
  0.8085698999381074  0.8355090924906999  0.7800664706013606
  0.7479194337129332  0.6268399852826305  0.3723268247687202
  0.4942149174926356  0.7491113159904106  0.7467214534618272
  0.3733997775890165  0.8093985654308169  0.9341820073928393
  0.2477082446717808  0.3717011850105572  0.1273286094306713
  0.7554628145803027  0.6232431352750504  0.8779113453614923
  0.6874204909578024  0.4065334548039332  0.4699279905024914
  0.4937850786049402  0.2458612599797890  0.2473981468506996
  0.3173429635074810  0.0951312574940262  0.0324608207041452
  0.0592709780304006  0.2196783559949269  0.4082390435778320
  0.9285035870052749  0.2836886816703816  0.5941756167670705
  0.6874661440363908  0.4077468977782710  0.9672610148129577
  0.0635023474771882  0.2223066061780957  0.9094578326085010
  0.7472794035634062  0.1228974281212015  0.8755785868851341
  0.4375844364927819  0.0261426533548952  0.8408507624897319
  0.2538976834319152  0.8720984509101691  0.1214550820979330
  0.1195201967243284  0.9347814987587788  0.3144626218213780
  0.8161388744257679  0.8456890276185898  0.2768558041295793
  0.6928788837258185  0.9078323430151900  0.4677526499179993
  0.5601003018024886  0.9660345920417100  0.6581897362617865
  0.4923142517293040  0.7466610891963038  0.2462429168122066
  0.6782066931045893  0.8959157266781549  0.9630101232684465
  0.8768735107308534  0.5727944886005766  0.1867047852763526
  0.6347025734226235  0.6995523037956249  0.5608838703477259
  0.5596776478674854  0.4759022118577380  0.1564261454998088
  0.5695589081120168  0.4720207976085705  0.6591961434741027
  0.2434570910288384  0.3776032816483867  0.6281770595596434
  0.9930927379345733  0.0049582528528714  0.9954850261483563
  0.8250219244025051  0.3426950918996701  0.7877826565675908
  0.3693468097229853  0.3129474360388016  0.9367953066694905
  0.4492714260396476  0.0263414901818092  0.3464931280579407
  0.8627450508201386  0.0501406006978382  0.6857396863403959
 
  0.00000000E+00  0.00000000E+00  0.00000000E+00
  0.00000000E+00  0.00000000E+00  0.00000000E+00
  0.00000000E+00  0.00000000E+00  0.00000000E+00
  0.00000000E+00  0.00000000E+00  0.00000000E+00
  0.00000000E+00  0.00000000E+00  0.00000000E+00
  0.00000000E+00  0.00000000E+00  0.00000000E+00
  0.00000000E+00  0.00000000E+00  0.00000000E+00
  0.00000000E+00  0.00000000E+00  0.00000000E+00
  0.00000000E+00  0.00000000E+00  0.00000000E+00
  0.00000000E+00  0.00000000E+00  0.00000000E+00
  0.00000000E+00  0.00000000E+00  0.00000000E+00
  0.00000000E+00  0.00000000E+00  0.00000000E+00
  0.00000000E+00  0.00000000E+00  0.00000000E+00
  0.00000000E+00  0.00000000E+00  0.00000000E+00
  0.00000000E+00  0.00000000E+00  0.00000000E+00
  0.00000000E+00  0.00000000E+00  0.00000000E+00
  0.00000000E+00  0.00000000E+00  0.00000000E+00
  0.00000000E+00  0.00000000E+00  0.00000000E+00
  0.00000000E+00  0.00000000E+00  0.00000000E+00
  0.00000000E+00  0.00000000E+00  0.00000000E+00
  0.00000000E+00  0.00000000E+00  0.00000000E+00
  0.00000000E+00  0.00000000E+00  0.00000000E+00
  0.00000000E+00  0.00000000E+00  0.00000000E+00
  0.00000000E+00  0.00000000E+00  0.00000000E+00
  0.00000000E+00  0.00000000E+00  0.00000000E+00
  0.00000000E+00  0.00000000E+00  0.00000000E+00
  0.00000000E+00  0.00000000E+00  0.00000000E+00
  0.00000000E+00  0.00000000E+00  0.00000000E+00
  0.00000000E+00  0.00000000E+00  0.00000000E+00
  0.00000000E+00  0.00000000E+00  0.00000000E+00
  0.00000000E+00  0.00000000E+00  0.00000000E+00
  0.00000000E+00  0.00000000E+00  0.00000000E+00
  0.00000000E+00  0.00000000E+00  0.00000000E+00
  0.00000000E+00  0.00000000E+00  0.00000000E+00
  0.00000000E+00  0.00000000E+00  0.00000000E+00
  0.00000000E+00  0.00000000E+00  0.00000000E+00
  0.00000000E+00  0.00000000E+00  0.00000000E+00
  0.00000000E+00  0.00000000E+00  0.00000000E+00
  0.00000000E+00  0.00000000E+00  0.00000000E+00
  0.00000000E+00  0.00000000E+00  0.00000000E+00
  0.00000000E+00  0.00000000E+00  0.00000000E+00
  0.00000000E+00  0.00000000E+00  0.00000000E+00
  0.00000000E+00  0.00000000E+00  0.00000000E+00
  0.00000000E+00  0.00000000E+00  0.00000000E+00
  0.00000000E+00  0.00000000E+00  0.00000000E+00
  0.00000000E+00  0.00000000E+00  0.00000000E+00
  0.00000000E+00  0.00000000E+00  0.00000000E+00
  0.00000000E+00  0.00000000E+00  0.00000000E+00
  0.00000000E+00  0.00000000E+00  0.00000000E+00
  0.00000000E+00  0.00000000E+00  0.00000000E+00
  0.00000000E+00  0.00000000E+00  0.00000000E+00
  0.00000000E+00  0.00000000E+00  0.00000000E+00
  0.00000000E+00  0.00000000E+00  0.00000000E+00
  0.00000000E+00  0.00000000E+00  0.00000000E+00
  0.00000000E+00  0.00000000E+00  0.00000000E+00
  0.00000000E+00  0.00000000E+00  0.00000000E+00
  0.00000000E+00  0.00000000E+00  0.00000000E+00
  0.00000000E+00  0.00000000E+00  0.00000000E+00
  0.00000000E+00  0.00000000E+00  0.00000000E+00
  0.00000000E+00  0.00000000E+00  0.00000000E+00
  0.00000000E+00  0.00000000E+00  0.00000000E+00
  0.00000000E+00  0.00000000E+00  0.00000000E+00
  0.00000000E+00  0.00000000E+00  0.00000000E+00
  0.00000000E+00  0.00000000E+00  0.00000000E+00
