FeNiCoCr_SQSbcc64_17_13                 
   2.80000000000000     
    -0.4444822750136529    3.1614013694309344    1.3409784401981624
     2.2357682939854873    0.6305309093601428    1.3387856269030196
     1.3442512429357605    3.1627943958026026   -2.2298525167242320
   Fe   Ni   Co   Cr
    17    17    17    13
Direct
  0.9652447789051324  0.0661949952339418  0.2214493898937484
  0.9847769082950671  0.5301659437605285  0.1107483248473057
  0.8239779987671879  0.8468709103937181  0.2073253664223317
  0.9985345276201445  0.0014194765350594  0.9992681548872550
  0.5047469034326088  0.9963581868301485  0.4973318743724159
  0.3755601919870754  0.2493935305771275  0.3718259278476995
  0.2004647532134372  0.0907481654431961  0.5789263941469587
  0.4859047760600804  0.5329339288948729  0.6083319639723042
  0.6292273533731532  0.7485415868470474  0.6253642669039948
  0.7643435176055311  0.9744886507344634  0.6411830542371231
  0.4371662726760643  0.1266288923518938  0.9366525496927782
  0.7157132375809694  0.5649470250932146  0.9702391312009763
  0.3100665927745895  0.3761116372038326  0.8138379203259073
  0.1835169064404070  0.6275858732904777  0.6842541104694189
  0.3287335963286252  0.8413356139896480  0.7053426497108863
  0.0133297059818140  0.4638434589364653  0.8895955299017083
  0.1583378782465071  0.6868019930423401  0.9060198250165180
  0.7022030322867031  0.0911439248742578  0.0790310743636547
  0.8382685333621296  0.3154390319783942  0.0952119881307562
  0.4059044372749286  0.1878906593164792  0.1560195851353730
  0.5456449816978771  0.4073026983726887  0.1729775084237579
  0.7827074886513347  0.4370937318052847  0.5302467436349582
  0.5180301525444456  0.4685065946043689  0.3894086802170870
  0.1118687556553793  0.2796168293727470  0.2349082455980540
  0.1249587174234044  0.7541775603175315  0.1244544278730961
  0.2665965104614619  0.9684388133288924  0.1392220418165239
  0.8762730246698480  0.2473428338349477  0.8728880872605606
  0.4680790365483842  0.0645404738214059  0.7182496616235103
  0.7483607676318285  0.5023039341289471  0.7501930595076203
  0.8897786707652422  0.7200773345664322  0.7661972319300108
  0.2164519082224526  0.5589903672354689  0.4689149163732296
  0.3584207898867807  0.7820851405208359  0.4819507560850459
  0.5799563944295805  0.3427248277212935  0.9533234667234399
  0.0459859769029660  0.4048495675824260  0.6719955299965380
  0.9390562366239352  0.1219873651060594  0.4381517420132311
  0.6700864506161267  0.1565963498345541  0.2974654588156878
  0.6892230685711563  0.6267907577213868  0.1891222013050572
  0.4240146656941641  0.6581902591802553  0.0466129501381044
  0.9063872467429541  0.1882609933523307  0.6563487782364408
  0.6392972592526777  0.2213776562401864  0.5151455496237776
  0.2342809329179592  0.0260056918071230  0.3594118173900456
  0.2506058859402077  0.5030244452819128  0.2494241257183008
  0.3908260775776776  0.7160704290363252  0.2638789381658069
  0.5299324040509665  0.9354618969250749  0.2803805469242608
  0.7363036421110962  0.0263798842947190  0.8585193048298544
  0.0809652498245573  0.3391283576759114  0.4519449361267602
  0.8597086702985576  0.7802236193155521  0.9846144219631165
  0.1738483074072198  0.1509902662118615  0.7972733949215050
  0.4572172580352531  0.5906729960951499  0.8301995389568140
  0.5925649832664799  0.8144106096823660  0.8446337469928858
  0.0276864167701226  0.9366207041477992  0.7807428358491570
  0.8142424438892325  0.3673015650207502  0.3130631271824101
  0.9600360212053423  0.5919115256628755  0.3281830052650435
  0.1315865072431192  0.2228185137705766  0.0189487293235191
  0.2844513406504827  0.4464472408482562  0.0325690836347822
  0.5642804374985051  0.8762320449236666  0.0617065138944684
  0.9233981861657716  0.6501149783129448  0.5434330160596557
  0.6542214469044552  0.6903132850284546  0.4071410616501962
  0.7953489102451333  0.9197574233916922  0.4252123182845462
  0.6072422637175657  0.2836484231688146  0.7365904730252183
  0.3443035586919692  0.3133937865483997  0.5958369037094061
  0.0948567876730868  0.8134050111740888  0.3402107519414382
  0.0587488164292752  0.8783917754924266  0.5629527625425431
  0.3061434462817726  0.8971779522080798  0.9173925269734263
 
  0.00000000E+00  0.00000000E+00  0.00000000E+00
  0.00000000E+00  0.00000000E+00  0.00000000E+00
  0.00000000E+00  0.00000000E+00  0.00000000E+00
  0.00000000E+00  0.00000000E+00  0.00000000E+00
  0.00000000E+00  0.00000000E+00  0.00000000E+00
  0.00000000E+00  0.00000000E+00  0.00000000E+00
  0.00000000E+00  0.00000000E+00  0.00000000E+00
  0.00000000E+00  0.00000000E+00  0.00000000E+00
  0.00000000E+00  0.00000000E+00  0.00000000E+00
  0.00000000E+00  0.00000000E+00  0.00000000E+00
  0.00000000E+00  0.00000000E+00  0.00000000E+00
  0.00000000E+00  0.00000000E+00  0.00000000E+00
  0.00000000E+00  0.00000000E+00  0.00000000E+00
  0.00000000E+00  0.00000000E+00  0.00000000E+00
  0.00000000E+00  0.00000000E+00  0.00000000E+00
  0.00000000E+00  0.00000000E+00  0.00000000E+00
  0.00000000E+00  0.00000000E+00  0.00000000E+00
  0.00000000E+00  0.00000000E+00  0.00000000E+00
  0.00000000E+00  0.00000000E+00  0.00000000E+00
  0.00000000E+00  0.00000000E+00  0.00000000E+00
  0.00000000E+00  0.00000000E+00  0.00000000E+00
  0.00000000E+00  0.00000000E+00  0.00000000E+00
  0.00000000E+00  0.00000000E+00  0.00000000E+00
  0.00000000E+00  0.00000000E+00  0.00000000E+00
  0.00000000E+00  0.00000000E+00  0.00000000E+00
  0.00000000E+00  0.00000000E+00  0.00000000E+00
  0.00000000E+00  0.00000000E+00  0.00000000E+00
  0.00000000E+00  0.00000000E+00  0.00000000E+00
  0.00000000E+00  0.00000000E+00  0.00000000E+00
  0.00000000E+00  0.00000000E+00  0.00000000E+00
  0.00000000E+00  0.00000000E+00  0.00000000E+00
  0.00000000E+00  0.00000000E+00  0.00000000E+00
  0.00000000E+00  0.00000000E+00  0.00000000E+00
  0.00000000E+00  0.00000000E+00  0.00000000E+00
  0.00000000E+00  0.00000000E+00  0.00000000E+00
  0.00000000E+00  0.00000000E+00  0.00000000E+00
  0.00000000E+00  0.00000000E+00  0.00000000E+00
  0.00000000E+00  0.00000000E+00  0.00000000E+00
  0.00000000E+00  0.00000000E+00  0.00000000E+00
  0.00000000E+00  0.00000000E+00  0.00000000E+00
  0.00000000E+00  0.00000000E+00  0.00000000E+00
  0.00000000E+00  0.00000000E+00  0.00000000E+00
  0.00000000E+00  0.00000000E+00  0.00000000E+00
  0.00000000E+00  0.00000000E+00  0.00000000E+00
  0.00000000E+00  0.00000000E+00  0.00000000E+00
  0.00000000E+00  0.00000000E+00  0.00000000E+00
  0.00000000E+00  0.00000000E+00  0.00000000E+00
  0.00000000E+00  0.00000000E+00  0.00000000E+00
  0.00000000E+00  0.00000000E+00  0.00000000E+00
  0.00000000E+00  0.00000000E+00  0.00000000E+00
  0.00000000E+00  0.00000000E+00  0.00000000E+00
  0.00000000E+00  0.00000000E+00  0.00000000E+00
  0.00000000E+00  0.00000000E+00  0.00000000E+00
  0.00000000E+00  0.00000000E+00  0.00000000E+00
  0.00000000E+00  0.00000000E+00  0.00000000E+00
  0.00000000E+00  0.00000000E+00  0.00000000E+00
  0.00000000E+00  0.00000000E+00  0.00000000E+00
  0.00000000E+00  0.00000000E+00  0.00000000E+00
  0.00000000E+00  0.00000000E+00  0.00000000E+00
  0.00000000E+00  0.00000000E+00  0.00000000E+00
  0.00000000E+00  0.00000000E+00  0.00000000E+00
  0.00000000E+00  0.00000000E+00  0.00000000E+00
  0.00000000E+00  0.00000000E+00  0.00000000E+00
  0.00000000E+00  0.00000000E+00  0.00000000E+00
