FeCoCrMn_SQSbcc64_17_13                 
   2.80000000000000     
    -0.5056680851837118    2.5286687283235945    1.5188191259504848
     2.5179446958490179    0.5049332379038474    1.5166700897299492
     1.5119601070775928    2.5272028399637856   -2.5306128086366186
   Fe   Co   Cr   Mn
    17    17    17    13
Direct
  0.9679997403336973  0.0631439864035562  0.2185485073079864
  0.9829214852421875  0.5317075625473522  0.1080766414722875
  0.8262771123684176  0.8439536114222412  0.2034593684771661
  0.9972699919348632  0.0006189485082059  0.0012225733860425
  0.4995979398633494  0.9986051567809671  0.4999496768950905
  0.3718504241305513  0.2503203070409742  0.3713839603979998
  0.2049577811369331  0.0947177687882014  0.5781111901719932
  0.4856014862899224  0.5332609939801857  0.6080322017334057
  0.6258112187481224  0.7493044440775617  0.6257289586640585
  0.7653582156598110  0.9670043867704482  0.6397852674749930
  0.4420744163047585  0.1252170990233600  0.9373462397413308
  0.7180411194839181  0.5601405660717346  0.9709097907293508
  0.3112365453230490  0.3765604329362855  0.8136500338702966
  0.1879684454842447  0.6264800599737237  0.6867815701849549
  0.3292239768710077  0.8435651708427292  0.7014912383609259
  0.0145716760224157  0.4727408706743630  0.8904606368760800
  0.1523884728718421  0.6932956221733111  0.9051412241309802
  0.7013949070291678  0.0986078903501355  0.0809924752685294
  0.8479332305809812  0.3123653793122319  0.0964747741038078
  0.4028864463350336  0.1875542529254259  0.1521255916603729
  0.5501529732350087  0.3994292141126602  0.1706193872754952
  0.7806267773638500  0.4386383566889843  0.5312465431664497
  0.5172544012948181  0.4688409938713601  0.3921061731847196
  0.1079863657514539  0.2797983452004394  0.2351270979566422
  0.1183340058343130  0.7512972345104475  0.1239277336162883
  0.2637499520494352  0.9684528821448948  0.1405202736409808
  0.8750899237298951  0.2511234322316236  0.8774018848620897
  0.4695058371799904  0.0627159906580360  0.7186207702326396
  0.7450366627218451  0.5010447243817626  0.7522227808866336
  0.8936838789821476  0.7162963163957535  0.7638671395697065
  0.2186017436003984  0.5628247801000885  0.4701849219433855
  0.3601162562070493  0.7812529713963257  0.4841143359443265
  0.5766493520853343  0.3435563118571168  0.9515564920156262
  0.0444799970852019  0.4059684577831883  0.6732384191483536
  0.9435158707824033  0.1256803062370046  0.4410524520236451
  0.6716908649878844  0.1528311388328357  0.3035224809741536
  0.6859265546380513  0.6217120040871421  0.1914577458326666
  0.4173217439044007  0.6593168184590820  0.0446803151696994
  0.9053873712718653  0.1864022395807026  0.6576471385107510
  0.6384144096104549  0.2128627739331066  0.5160872169501626
  0.2337418163019837  0.0299385069556124  0.3590563854417402
  0.2506165458589630  0.5006073184660361  0.2496322737328383
  0.3940255626469060  0.7105459858093681  0.2608917165688058
  0.5249625057009720  0.9387541770541349  0.2816465139272354
  0.7374209801662137  0.0222834228953358  0.8608734656348774
  0.0758565351243248  0.3466019330340048  0.4539499225027634
  0.8533493387601603  0.7888564286396668  0.9825088654470476
  0.1733759874025424  0.1538748322425907  0.7995827134581159
  0.4524554901765349  0.5966958883394314  0.8292361317990277
  0.5901406581436938  0.8106515256938633  0.8418930332089506
  0.0301983805345392  0.9466444020397329  0.7772874369954006
  0.8104245107528691  0.3710779182040223  0.3151321456421803
  0.9621956411144668  0.5855257032853670  0.3274957888930963
  0.1420234900893681  0.2184570667527019  0.0137948368340996
  0.2831935980424871  0.4425198638863379  0.0344695291431160
  0.5677829980838737  0.8669983879205516  0.0657924930454003
  0.9227953422813128  0.6581839665822791  0.5440700210583819
  0.6576338961354635  0.6896879734228404  0.4013512425117015
  0.7996503916128400  0.9106921469200228  0.4194438514554151
  0.6154013777551191  0.2787646557086788  0.7326900617862455
  0.3442691468760347  0.3135840401285102  0.5921517157560273
  0.0978065931688494  0.8113495566866971  0.3434285280649320
  0.0607296543647482  0.8804622578890368  0.5630372254865372
  0.3010599845756673  0.9080322383776420  0.9217108777940065
 
  0.00000000E+00  0.00000000E+00  0.00000000E+00
  0.00000000E+00  0.00000000E+00  0.00000000E+00
  0.00000000E+00  0.00000000E+00  0.00000000E+00
  0.00000000E+00  0.00000000E+00  0.00000000E+00
  0.00000000E+00  0.00000000E+00  0.00000000E+00
  0.00000000E+00  0.00000000E+00  0.00000000E+00
  0.00000000E+00  0.00000000E+00  0.00000000E+00
  0.00000000E+00  0.00000000E+00  0.00000000E+00
  0.00000000E+00  0.00000000E+00  0.00000000E+00
  0.00000000E+00  0.00000000E+00  0.00000000E+00
  0.00000000E+00  0.00000000E+00  0.00000000E+00
  0.00000000E+00  0.00000000E+00  0.00000000E+00
  0.00000000E+00  0.00000000E+00  0.00000000E+00
  0.00000000E+00  0.00000000E+00  0.00000000E+00
  0.00000000E+00  0.00000000E+00  0.00000000E+00
  0.00000000E+00  0.00000000E+00  0.00000000E+00
  0.00000000E+00  0.00000000E+00  0.00000000E+00
  0.00000000E+00  0.00000000E+00  0.00000000E+00
  0.00000000E+00  0.00000000E+00  0.00000000E+00
  0.00000000E+00  0.00000000E+00  0.00000000E+00
  0.00000000E+00  0.00000000E+00  0.00000000E+00
  0.00000000E+00  0.00000000E+00  0.00000000E+00
  0.00000000E+00  0.00000000E+00  0.00000000E+00
  0.00000000E+00  0.00000000E+00  0.00000000E+00
  0.00000000E+00  0.00000000E+00  0.00000000E+00
  0.00000000E+00  0.00000000E+00  0.00000000E+00
  0.00000000E+00  0.00000000E+00  0.00000000E+00
  0.00000000E+00  0.00000000E+00  0.00000000E+00
  0.00000000E+00  0.00000000E+00  0.00000000E+00
  0.00000000E+00  0.00000000E+00  0.00000000E+00
  0.00000000E+00  0.00000000E+00  0.00000000E+00
  0.00000000E+00  0.00000000E+00  0.00000000E+00
  0.00000000E+00  0.00000000E+00  0.00000000E+00
  0.00000000E+00  0.00000000E+00  0.00000000E+00
  0.00000000E+00  0.00000000E+00  0.00000000E+00
  0.00000000E+00  0.00000000E+00  0.00000000E+00
  0.00000000E+00  0.00000000E+00  0.00000000E+00
  0.00000000E+00  0.00000000E+00  0.00000000E+00
  0.00000000E+00  0.00000000E+00  0.00000000E+00
  0.00000000E+00  0.00000000E+00  0.00000000E+00
  0.00000000E+00  0.00000000E+00  0.00000000E+00
  0.00000000E+00  0.00000000E+00  0.00000000E+00
  0.00000000E+00  0.00000000E+00  0.00000000E+00
  0.00000000E+00  0.00000000E+00  0.00000000E+00
  0.00000000E+00  0.00000000E+00  0.00000000E+00
  0.00000000E+00  0.00000000E+00  0.00000000E+00
  0.00000000E+00  0.00000000E+00  0.00000000E+00
  0.00000000E+00  0.00000000E+00  0.00000000E+00
  0.00000000E+00  0.00000000E+00  0.00000000E+00
  0.00000000E+00  0.00000000E+00  0.00000000E+00
  0.00000000E+00  0.00000000E+00  0.00000000E+00
  0.00000000E+00  0.00000000E+00  0.00000000E+00
  0.00000000E+00  0.00000000E+00  0.00000000E+00
  0.00000000E+00  0.00000000E+00  0.00000000E+00
  0.00000000E+00  0.00000000E+00  0.00000000E+00
  0.00000000E+00  0.00000000E+00  0.00000000E+00
  0.00000000E+00  0.00000000E+00  0.00000000E+00
  0.00000000E+00  0.00000000E+00  0.00000000E+00
  0.00000000E+00  0.00000000E+00  0.00000000E+00
  0.00000000E+00  0.00000000E+00  0.00000000E+00
  0.00000000E+00  0.00000000E+00  0.00000000E+00
  0.00000000E+00  0.00000000E+00  0.00000000E+00
  0.00000000E+00  0.00000000E+00  0.00000000E+00
  0.00000000E+00  0.00000000E+00  0.00000000E+00
