FeNiCoMn_SQSbcc64_12_Co28               
   3.00000000000000     
    -2.3883955669540193   -1.3967965541234122    1.4352850803688688
     1.9163499626388492    1.8571518238921856    1.9177423034118650
    -1.9132790204920858    1.8583327433379515   -1.9221207027976732
   Fe   Ni   Co   Mn
    12    12    28    12
Direct
  0.7443512854819968  0.4938759541225720  0.5486768954636936
  0.7495254180059814  0.0040098978979463  0.3156715285589813
  0.7335429677297687  0.9999337542349646  0.0576360445710813
  0.7497222288603800  0.7489630758524837  0.0581376156615833
  0.4969631702559076  0.0008457165129559  0.3708141424335200
  0.5039348463368628  0.7534507154212970  0.3818428735123301
  0.2493317085869612  0.7456084485188487  0.6779029176385887
  0.2504859950801426  0.2604343597213801  0.4436331545302212
  0.2476656629172910  0.7502363898422645  0.4285408799168135
  0.2527149947849218  0.5054527021394504  0.1823221516053340
  0.0016788630793070  0.7436940735695988  0.4947209031012926
  0.9959810857514205  0.7348865775942075  0.9957363397718406
  0.7524787978357275  0.2628987027773603  0.8008579588447583
  0.7393965214319410  0.2427114355144321  0.2940337798802137
  0.7538626398531239  0.2537922346167917  0.0455637055026831
  0.4898478859414476  0.9896263806907964  0.8752646303494872
  0.5053073112247977  0.4906566591730200  0.1252636194572971
  0.2441050375296770  0.5014237946374847  0.6831969082943871
  0.2495969067781019  0.0055937592011423  0.4376708424659485
  0.2586373569642053  0.5112182208097154  0.4351505267510590
  0.9954481787677609  0.9892823980641917  0.5084358600124936
  0.9954944571280409  0.2414727257888654  0.5159355051658286
  0.9996249834836847  0.9991849417915848  0.2592216582855369
  0.0089754456841586  0.4928152502152052  0.9997316246521232
  0.7551288471257963  0.0162862377261945  0.8202591619282527
  0.7501308313370957  0.5064142973891631  0.8018275357910266
  0.7483279691923347  0.7572555052923172  0.8165101255251471
  0.7574277588224284  0.0150201258715575  0.5679746337931941
  0.7402210917137394  0.2494888630782610  0.5480664677985059
  0.7516742869710915  0.5008269438336156  0.3033153219721731
  0.7576224077055924  0.5035847873192677  0.0504215275492313
  0.5041509491372028  0.4999175293910166  0.8757188490271864
  0.4959535094572838  0.7417943954222537  0.8802501194564513
  0.5000308149866595  0.5058216249806177  0.6259135498055514
  0.5055456619515596  0.7595111763856115  0.6364965327455724
  0.4916936014499685  0.2481678477137161  0.3726321738544498
  0.5111436311384475  0.5101909005732111  0.3821601870472427
  0.4843791129516410  0.9780385091090424  0.1201376078999239
  0.5120002854169500  0.7522506850628701  0.1347050893890469
  0.2444401789015663  0.9960346248447060  0.9374674702142534
  0.2493117712811971  0.2503127585579502  0.9398343545698317
  0.2680149032404669  0.5104261243636607  0.9414899499653306
  0.2388727983608416  0.7372799623786962  0.9219048575370270
  0.2450398749787515  0.9952058914939520  0.6899196232978394
  0.2555906508856772  0.7508468839949164  0.1828123134956180
  0.0022659284065734  0.0052953302798540  0.7617921424852057
  0.0071685825659366  0.2584913501634220  0.7737319206617398
  0.9873742232261792  0.4833223944608990  0.7417304088035819
  0.9969414565642966  0.4950568724041811  0.5014679871401112
  0.0014412219942749  0.4957993247395205  0.2505459579637431
  0.0008876678936050  0.7402703759585202  0.2442223448034587
  0.0067514404884800  0.2494480628018881  0.0150776912724263
  0.7547904258817416  0.7611271242901838  0.5707305768580754
  0.7543442309684623  0.7477344256027300  0.3087375722561932
  0.4999020534016697  0.2482084574424877  0.8743411386743776
  0.5022716073817133  0.0021436482618548  0.6296768347633547
  0.5012339121469651  0.2564438021655330  0.6213953182550804
  0.5052747823424953  0.2377839456536078  0.1254484736531458
  0.2443893904331010  0.2505641124210495  0.6926816985659998
  0.2452415448618506  0.9971718132117465  0.1860402138948687
  0.2623666247476272  0.2658252367205667  0.1943939546713867
  0.9949044891319245  0.7471303277933115  0.7481869415084147
  0.9991713131099813  0.2525696388685030  0.2658440409641036
  0.9979044179531732  0.9988699132689981  0.0081752637147791
 
  0.00000000E+00  0.00000000E+00  0.00000000E+00
  0.00000000E+00  0.00000000E+00  0.00000000E+00
  0.00000000E+00  0.00000000E+00  0.00000000E+00
  0.00000000E+00  0.00000000E+00  0.00000000E+00
  0.00000000E+00  0.00000000E+00  0.00000000E+00
  0.00000000E+00  0.00000000E+00  0.00000000E+00
  0.00000000E+00  0.00000000E+00  0.00000000E+00
  0.00000000E+00  0.00000000E+00  0.00000000E+00
  0.00000000E+00  0.00000000E+00  0.00000000E+00
  0.00000000E+00  0.00000000E+00  0.00000000E+00
  0.00000000E+00  0.00000000E+00  0.00000000E+00
  0.00000000E+00  0.00000000E+00  0.00000000E+00
  0.00000000E+00  0.00000000E+00  0.00000000E+00
  0.00000000E+00  0.00000000E+00  0.00000000E+00
  0.00000000E+00  0.00000000E+00  0.00000000E+00
  0.00000000E+00  0.00000000E+00  0.00000000E+00
  0.00000000E+00  0.00000000E+00  0.00000000E+00
  0.00000000E+00  0.00000000E+00  0.00000000E+00
  0.00000000E+00  0.00000000E+00  0.00000000E+00
  0.00000000E+00  0.00000000E+00  0.00000000E+00
  0.00000000E+00  0.00000000E+00  0.00000000E+00
  0.00000000E+00  0.00000000E+00  0.00000000E+00
  0.00000000E+00  0.00000000E+00  0.00000000E+00
  0.00000000E+00  0.00000000E+00  0.00000000E+00
  0.00000000E+00  0.00000000E+00  0.00000000E+00
  0.00000000E+00  0.00000000E+00  0.00000000E+00
  0.00000000E+00  0.00000000E+00  0.00000000E+00
  0.00000000E+00  0.00000000E+00  0.00000000E+00
  0.00000000E+00  0.00000000E+00  0.00000000E+00
  0.00000000E+00  0.00000000E+00  0.00000000E+00
  0.00000000E+00  0.00000000E+00  0.00000000E+00
  0.00000000E+00  0.00000000E+00  0.00000000E+00
  0.00000000E+00  0.00000000E+00  0.00000000E+00
  0.00000000E+00  0.00000000E+00  0.00000000E+00
  0.00000000E+00  0.00000000E+00  0.00000000E+00
  0.00000000E+00  0.00000000E+00  0.00000000E+00
  0.00000000E+00  0.00000000E+00  0.00000000E+00
  0.00000000E+00  0.00000000E+00  0.00000000E+00
  0.00000000E+00  0.00000000E+00  0.00000000E+00
  0.00000000E+00  0.00000000E+00  0.00000000E+00
  0.00000000E+00  0.00000000E+00  0.00000000E+00
  0.00000000E+00  0.00000000E+00  0.00000000E+00
  0.00000000E+00  0.00000000E+00  0.00000000E+00
  0.00000000E+00  0.00000000E+00  0.00000000E+00
  0.00000000E+00  0.00000000E+00  0.00000000E+00
  0.00000000E+00  0.00000000E+00  0.00000000E+00
  0.00000000E+00  0.00000000E+00  0.00000000E+00
  0.00000000E+00  0.00000000E+00  0.00000000E+00
  0.00000000E+00  0.00000000E+00  0.00000000E+00
  0.00000000E+00  0.00000000E+00  0.00000000E+00
  0.00000000E+00  0.00000000E+00  0.00000000E+00
  0.00000000E+00  0.00000000E+00  0.00000000E+00
  0.00000000E+00  0.00000000E+00  0.00000000E+00
  0.00000000E+00  0.00000000E+00  0.00000000E+00
  0.00000000E+00  0.00000000E+00  0.00000000E+00
  0.00000000E+00  0.00000000E+00  0.00000000E+00
  0.00000000E+00  0.00000000E+00  0.00000000E+00
  0.00000000E+00  0.00000000E+00  0.00000000E+00
  0.00000000E+00  0.00000000E+00  0.00000000E+00
  0.00000000E+00  0.00000000E+00  0.00000000E+00
  0.00000000E+00  0.00000000E+00  0.00000000E+00
  0.00000000E+00  0.00000000E+00  0.00000000E+00
  0.00000000E+00  0.00000000E+00  0.00000000E+00
  0.00000000E+00  0.00000000E+00  0.00000000E+00
