FeNiCoMn_SQSfcc64_12_Co28               
   3.80000000000000     
    -1.8579053583401974    1.3985703515080172    0.4710200458716690
     1.8599358278283187    1.4010455279532996    0.4717051900068771
    -0.0001276145130826    0.4635361502282992   -2.3475474767893787
   Fe   Ni   Co   Mn
    12    12    28    12
Direct
  0.9757751885386176  0.7221361714050161  0.9332598568344517
  0.8122925896328007  0.3138197851767964  0.6270478441720735
  0.8784190649656852  0.8757706608362529  0.7480872163780693
  0.3794655498037688  0.3723172160760223  0.7525509147462742
  0.3992393673700467  0.6507812350046061  0.8123544338112306
  0.6836755979676665  0.1850398339904861  0.3761317938461568
  0.0640965626456098  0.0641268717068410  0.6263453286587830
  0.0955869820057026  0.3485198913939523  0.6924420588134085
  0.2519744567223745  0.2501587410066989  0.4978558536952346
  0.4004352398432515  0.1527476164445974  0.3042848061346162
  0.2826389577596046  0.0294352061946533  0.0506130089594317
  0.0355763339780808  0.2818144924057322  0.0535990164705369
  0.9379168058121886  0.4401227708339675  0.8759565465931926
  0.4718148142157839  0.2207178727721852  0.9404939315399399
  0.7220358124191119  0.9697878250693477  0.9337613987355403
  0.7798901826852291  0.0317948280232177  0.5639621057961819
  0.2185284652837043  0.4726349875171176  0.9392132692802214
  0.9055968649605470  0.6559765843496345  0.3161885339041748
  0.9332809980573608  0.9380649107285632  0.3804883235913200
  0.5642490838356964  0.0639056826551388  0.1249186978847064
  0.5938987890752618  0.3439265124711620  0.1876525456029588
  0.0292737187972122  0.7786020651610231  0.5631383817462473
  0.1578372620916538  0.4084109858593929  0.3139458057067484
  0.0632938336170928  0.5664086802186497  0.1260535553498149
  0.9029689282812772  0.1548195197793849  0.8112546561098173
  0.6261848086801852  0.1300187587621448  0.7519096088036059
  0.6894005229450776  0.6877046839106447  0.8723067276722818
  0.9692980572303644  0.2194147825094358  0.4413204051722895
  0.1889455228495159  0.1885561335967181  0.8741370017486915
  0.3464995209045788  0.0958873864211475  0.6961166769233631
  0.4392658270901818  0.9389036533430999  0.8684770414777013
  0.5319440701733420  0.2834053914598083  0.5600466053309354
  0.7155482923362181  0.4701250209824977  0.4378831960280445
  0.7495289504238982  0.7494826708849270  0.4967912379408349
  0.1233177047522497  0.6257390326646670  0.7461055599778684
  0.1591826584544948  0.9034548706541646  0.8079853423148015
  0.2822314205346674  0.5330338026277098  0.5610867727375513
  0.3074323395996166  0.8081778319242060  0.6253607525961169
  0.4386862202071423  0.4358077583258698  0.3752889781778217
  0.4662608790951491  0.7131170546056975  0.4325784917694624
  0.6230357124689204  0.6215129645025633  0.2554501976547675
  0.6530821463625860  0.9036453008589824  0.3201194536742217
  0.7508767239612104  0.2476904796762769 -0.0007250268622755
  0.8157900395682343  0.8111784012379524  0.1256845905094065
  0.0009984822398544  0.4998836814121322  0.5047595080919407
  0.1886495217573312  0.6823701244692629  0.3775483562604215
  0.3143777481540818  0.3165078414035026  0.1237055940478293
  0.3416389849187987  0.5934763843917388  0.1891566074299303
  0.3757141751562412  0.8740173888441972  0.2492710394744740
  0.4936263971644479  0.4977288606176482  0.0010492945985627
  0.0016894122291973  0.9984258682048515  0.9904768155517387
  0.2517838709505464  0.7493791237444424  0.0003898193309987
  0.6580545277798119  0.4129717714205555  0.8110690764599346
  0.8343921578470690  0.5923404414450933  0.6892520807186564
  0.4919319249191568 -0.0001004521409226  0.5022825877076283
  0.5672112963313588  0.5627429795066144  0.6275995639636309
  0.5927623852135668  0.8380146009736502  0.6876923948179242
  0.8446585007433692  0.0822987522402087  0.1847140665545193
  0.8784461070574630  0.3758332908061123  0.2544658068483063
  0.7770413493523498  0.5360171459911870  0.0584680392529351
  0.1185701737781316  0.1290547292658508  0.2454034879109308
  0.2205177645166677  0.9647245085299588  0.4431075547125017
  0.5380367762157153  0.7852972138518780  0.0632104258847350
  0.0936255756718781  0.8503188189930941  0.1968543823737695
 
  0.00000000E+00  0.00000000E+00  0.00000000E+00
  0.00000000E+00  0.00000000E+00  0.00000000E+00
  0.00000000E+00  0.00000000E+00  0.00000000E+00
  0.00000000E+00  0.00000000E+00  0.00000000E+00
  0.00000000E+00  0.00000000E+00  0.00000000E+00
  0.00000000E+00  0.00000000E+00  0.00000000E+00
  0.00000000E+00  0.00000000E+00  0.00000000E+00
  0.00000000E+00  0.00000000E+00  0.00000000E+00
  0.00000000E+00  0.00000000E+00  0.00000000E+00
  0.00000000E+00  0.00000000E+00  0.00000000E+00
  0.00000000E+00  0.00000000E+00  0.00000000E+00
  0.00000000E+00  0.00000000E+00  0.00000000E+00
  0.00000000E+00  0.00000000E+00  0.00000000E+00
  0.00000000E+00  0.00000000E+00  0.00000000E+00
  0.00000000E+00  0.00000000E+00  0.00000000E+00
  0.00000000E+00  0.00000000E+00  0.00000000E+00
  0.00000000E+00  0.00000000E+00  0.00000000E+00
  0.00000000E+00  0.00000000E+00  0.00000000E+00
  0.00000000E+00  0.00000000E+00  0.00000000E+00
  0.00000000E+00  0.00000000E+00  0.00000000E+00
  0.00000000E+00  0.00000000E+00  0.00000000E+00
  0.00000000E+00  0.00000000E+00  0.00000000E+00
  0.00000000E+00  0.00000000E+00  0.00000000E+00
  0.00000000E+00  0.00000000E+00  0.00000000E+00
  0.00000000E+00  0.00000000E+00  0.00000000E+00
  0.00000000E+00  0.00000000E+00  0.00000000E+00
  0.00000000E+00  0.00000000E+00  0.00000000E+00
  0.00000000E+00  0.00000000E+00  0.00000000E+00
  0.00000000E+00  0.00000000E+00  0.00000000E+00
  0.00000000E+00  0.00000000E+00  0.00000000E+00
  0.00000000E+00  0.00000000E+00  0.00000000E+00
  0.00000000E+00  0.00000000E+00  0.00000000E+00
  0.00000000E+00  0.00000000E+00  0.00000000E+00
  0.00000000E+00  0.00000000E+00  0.00000000E+00
  0.00000000E+00  0.00000000E+00  0.00000000E+00
  0.00000000E+00  0.00000000E+00  0.00000000E+00
  0.00000000E+00  0.00000000E+00  0.00000000E+00
  0.00000000E+00  0.00000000E+00  0.00000000E+00
  0.00000000E+00  0.00000000E+00  0.00000000E+00
  0.00000000E+00  0.00000000E+00  0.00000000E+00
  0.00000000E+00  0.00000000E+00  0.00000000E+00
  0.00000000E+00  0.00000000E+00  0.00000000E+00
  0.00000000E+00  0.00000000E+00  0.00000000E+00
  0.00000000E+00  0.00000000E+00  0.00000000E+00
  0.00000000E+00  0.00000000E+00  0.00000000E+00
  0.00000000E+00  0.00000000E+00  0.00000000E+00
  0.00000000E+00  0.00000000E+00  0.00000000E+00
  0.00000000E+00  0.00000000E+00  0.00000000E+00
  0.00000000E+00  0.00000000E+00  0.00000000E+00
  0.00000000E+00  0.00000000E+00  0.00000000E+00
  0.00000000E+00  0.00000000E+00  0.00000000E+00
  0.00000000E+00  0.00000000E+00  0.00000000E+00
  0.00000000E+00  0.00000000E+00  0.00000000E+00
  0.00000000E+00  0.00000000E+00  0.00000000E+00
  0.00000000E+00  0.00000000E+00  0.00000000E+00
  0.00000000E+00  0.00000000E+00  0.00000000E+00
  0.00000000E+00  0.00000000E+00  0.00000000E+00
  0.00000000E+00  0.00000000E+00  0.00000000E+00
  0.00000000E+00  0.00000000E+00  0.00000000E+00
  0.00000000E+00  0.00000000E+00  0.00000000E+00
  0.00000000E+00  0.00000000E+00  0.00000000E+00
  0.00000000E+00  0.00000000E+00  0.00000000E+00
  0.00000000E+00  0.00000000E+00  0.00000000E+00
  0.00000000E+00  0.00000000E+00  0.00000000E+00
