FeNiCoMn_SQSfcc64_15_Ni19               
   3.50000000000000     
    -1.0136237049770200   -1.0279787190834810    2.0405737869779994
     2.5306006200492441   -1.0275409042045569   -0.5116355817302123
     0.5052350290936213    2.5689117633119078    1.0189988771125353
   Fe   Ni   Co   Mn
    15    19    15    15
Direct
  0.1259032815953429 -0.0056542964507194  0.2441709363397004
  0.0407245353369638  0.1193134000374022  0.4596436610921188
  0.3843956360366974 -0.0001388883234874  0.7449184604155246
  0.1413882136949586  0.3771444736000026  0.4063548725426729
  0.6300543005371324  0.0023265484763242  0.2490871824685805
  0.3930655537715635  0.3800174177841610  0.9137026886898344
  0.5875141412598289  0.2538127047584838  0.9373593965785038
  0.1070388639241070  0.6290369782617165  0.0996759165997895
  0.2377177117590189  0.6267642288583500  0.3455234160642333
  0.0849200066542474  0.8718056942070388  0.7852279072185745
  0.5104195623184897  0.3709672188233528  0.1679663887676480
  0.6084108848012189  0.6198324534940555  0.0968419543576530
  0.8076669945013009  0.4998938433758350  0.1268923196146775
  0.7824680028264072  0.7464528502948560  0.8078996946829473
  0.9038480399437923  0.7520906984022049  0.0581609946410507
  0.0003669500711190  0.0001377145983657 -0.0022945230706343
  0.2506671200098490 -0.0026217024491398  0.4987289026790366
  0.0918241331334427  0.2479033498155570  0.9385763885298127
  0.2940243395474023  0.1255979983414116  0.9724311726767002
  0.4218770886097276  0.1236032450389089  0.2196201106027936
  0.2655866949899326  0.3781029650460466  0.6549036157669533
  0.1911825006531997  0.5009019461297288  0.8755435823161209
  0.5435129499526298  0.1212728818925025  0.4661259793054456
  0.0292405453397704  0.7515375712347536  0.3159198149866181
  0.3050482904522869  0.4938678865530428  0.1268711370678024
  0.1585736968901017  0.7519996442897552  0.5636367758535423
  0.7173092167376023  0.2491736828075030  0.1898427052703919
  0.8427371954097782  0.2498599097241306  0.4359695114887471
  0.9747956131727424  0.2518208980755223  0.6819524777845123
  0.2029633092548537  0.8721344237759192  0.0321870247404542
  0.4535947323579049  0.8729489238889787  0.5308641465661241
  0.5801624225098685  0.8756307023095868  0.7793819820059499
  0.8598533021408964  0.6289255378869126  0.5949856681994452
  0.9534890749687113  0.8752421091827529  0.5321525231058210
  0.0141714116031952  0.3764945610425010  0.1583275250224234
  0.2080494527070681  0.2471068028058571  0.1840842162640910
  0.0713029800359792  0.5054786732701655  0.6305280033848302
  0.4703939906536869  0.2532731525388763  0.6903789463365182
  0.4398707968319807  0.5037970775335970  0.3749779426726117
  0.3589146761730790  0.6272709400118500  0.5889492936089051
  0.2791787356133331  0.7485035267506247  0.8087528466107798
  0.6395065948868955  0.3763134088079428  0.4044894923689034
  0.5602353739822493  0.5035543160118433  0.6220666167374197
  0.9228452408487717  0.1225222357955097  0.2215299796202681
  0.3304041756454840  0.8750684611089791  0.2839063016834544
  0.6558345336840974  0.7465425643567355  0.5638566776683415
  0.9923847050996289  0.6280035218393879  0.8464992912057766
  0.7053508152005189  0.8719771839243259  0.0311813906734381
  0.8284225677277504  0.8663030495739935  0.2766877520269276
  0.1823934240350585  0.1314372948930412  0.7179198614372566
  0.4903111212821059 -0.0058013301316725 -0.0010754925073094
  0.3510531881072531  0.2519002985136330  0.4414046696506339
  0.7432539865188315 -0.0036978216639216  0.4937265030924843
  0.6779323198574929  0.1316945771033085  0.7200401446414020
  0.8753718100240938  0.0027721913980197  0.7487024857519046
  0.7938236363489896  0.1250959676808096  0.9754858366474741
  0.4852778102079289  0.6284431178265055  0.8391454239799980
  0.7616023790654162  0.3758565775515272  0.6474534113346470
  0.6892283836986498  0.4989904080084006  0.8699760107685173
  0.8973738603136560  0.3767932313851606  0.9027252495023258
  0.4035025621603803  0.7425054721097818  0.0681735713716595
  0.5319754588257229  0.7458376286814753  0.3095119166601347
  0.7277930200679178  0.6338238143464514  0.3492233557415841
  0.9298960836298955  0.5004340831834753  0.3805459900934531
 
  0.00000000E+00  0.00000000E+00  0.00000000E+00
  0.00000000E+00  0.00000000E+00  0.00000000E+00
  0.00000000E+00  0.00000000E+00  0.00000000E+00
  0.00000000E+00  0.00000000E+00  0.00000000E+00
  0.00000000E+00  0.00000000E+00  0.00000000E+00
  0.00000000E+00  0.00000000E+00  0.00000000E+00
  0.00000000E+00  0.00000000E+00  0.00000000E+00
  0.00000000E+00  0.00000000E+00  0.00000000E+00
  0.00000000E+00  0.00000000E+00  0.00000000E+00
  0.00000000E+00  0.00000000E+00  0.00000000E+00
  0.00000000E+00  0.00000000E+00  0.00000000E+00
  0.00000000E+00  0.00000000E+00  0.00000000E+00
  0.00000000E+00  0.00000000E+00  0.00000000E+00
  0.00000000E+00  0.00000000E+00  0.00000000E+00
  0.00000000E+00  0.00000000E+00  0.00000000E+00
  0.00000000E+00  0.00000000E+00  0.00000000E+00
  0.00000000E+00  0.00000000E+00  0.00000000E+00
  0.00000000E+00  0.00000000E+00  0.00000000E+00
  0.00000000E+00  0.00000000E+00  0.00000000E+00
  0.00000000E+00  0.00000000E+00  0.00000000E+00
  0.00000000E+00  0.00000000E+00  0.00000000E+00
  0.00000000E+00  0.00000000E+00  0.00000000E+00
  0.00000000E+00  0.00000000E+00  0.00000000E+00
  0.00000000E+00  0.00000000E+00  0.00000000E+00
  0.00000000E+00  0.00000000E+00  0.00000000E+00
  0.00000000E+00  0.00000000E+00  0.00000000E+00
  0.00000000E+00  0.00000000E+00  0.00000000E+00
  0.00000000E+00  0.00000000E+00  0.00000000E+00
  0.00000000E+00  0.00000000E+00  0.00000000E+00
  0.00000000E+00  0.00000000E+00  0.00000000E+00
  0.00000000E+00  0.00000000E+00  0.00000000E+00
  0.00000000E+00  0.00000000E+00  0.00000000E+00
  0.00000000E+00  0.00000000E+00  0.00000000E+00
  0.00000000E+00  0.00000000E+00  0.00000000E+00
  0.00000000E+00  0.00000000E+00  0.00000000E+00
  0.00000000E+00  0.00000000E+00  0.00000000E+00
  0.00000000E+00  0.00000000E+00  0.00000000E+00
  0.00000000E+00  0.00000000E+00  0.00000000E+00
  0.00000000E+00  0.00000000E+00  0.00000000E+00
  0.00000000E+00  0.00000000E+00  0.00000000E+00
  0.00000000E+00  0.00000000E+00  0.00000000E+00
  0.00000000E+00  0.00000000E+00  0.00000000E+00
  0.00000000E+00  0.00000000E+00  0.00000000E+00
  0.00000000E+00  0.00000000E+00  0.00000000E+00
  0.00000000E+00  0.00000000E+00  0.00000000E+00
  0.00000000E+00  0.00000000E+00  0.00000000E+00
  0.00000000E+00  0.00000000E+00  0.00000000E+00
  0.00000000E+00  0.00000000E+00  0.00000000E+00
  0.00000000E+00  0.00000000E+00  0.00000000E+00
  0.00000000E+00  0.00000000E+00  0.00000000E+00
  0.00000000E+00  0.00000000E+00  0.00000000E+00
  0.00000000E+00  0.00000000E+00  0.00000000E+00
  0.00000000E+00  0.00000000E+00  0.00000000E+00
  0.00000000E+00  0.00000000E+00  0.00000000E+00
  0.00000000E+00  0.00000000E+00  0.00000000E+00
  0.00000000E+00  0.00000000E+00  0.00000000E+00
  0.00000000E+00  0.00000000E+00  0.00000000E+00
  0.00000000E+00  0.00000000E+00  0.00000000E+00
  0.00000000E+00  0.00000000E+00  0.00000000E+00
  0.00000000E+00  0.00000000E+00  0.00000000E+00
  0.00000000E+00  0.00000000E+00  0.00000000E+00
  0.00000000E+00  0.00000000E+00  0.00000000E+00
  0.00000000E+00  0.00000000E+00  0.00000000E+00
  0.00000000E+00  0.00000000E+00  0.00000000E+00
