FeNiCoMn_SQSfcc64_15_Co19               
   3.50000000000000     
    -1.0061812709902098   -1.0241696961120386    2.0491930895836035
     2.5154560784768409   -1.0295009195277893   -0.5149399077795446
     0.4996786086671962    2.5670837933272632    1.0262493378643127
   Fe   Ni   Co   Mn
    15    15    19    15
Direct
  0.1245962639161262 -0.0032972886146656  0.2454108377421733
  0.0435915120532908  0.1208469386032490  0.4627699547662795
  0.3727159225534994 -0.0007848180329060  0.7435126768618768
  0.1392296652915931  0.3711705368225360  0.4077368253065616
  0.6329524107066993  0.0077557374193366  0.2521642577756715
  0.3893320258731933  0.3799379037199384  0.9084665705436058
  0.5887770767391601  0.2537767762112593  0.9314771881563980
  0.1073051682605924  0.6208386643194634  0.0925783818078157
  0.2321843123605239  0.6273401636485669  0.3481009052941265
  0.0802181868194352  0.8726890067687042  0.7857786719664709
  0.5094959787443906  0.3679706260723570  0.1617227764177887
  0.6094596885725991  0.6207310857945790  0.0964968544562371
  0.8109852336836119  0.4943251936134905  0.1183398906912057
  0.7888469793863890  0.7572502477626474  0.8101312236158523
  0.9058278504835242  0.7503996574972944  0.0592031790193552
  0.0166503905386238  0.3733717076211128  0.1609274869892376
  0.2187984747869683  0.2494209687990809  0.1887720013046287
  0.0640163576080861  0.5008866502801190  0.6260376749510890
  0.4651253529857275  0.2520013899378995  0.6847294574574768
  0.4378891031387763  0.5016846489078298  0.3778110297196074
  0.3568101984090064  0.6266565600108830  0.5914810058363461
  0.2797336487606388  0.7480387045976469  0.8114371622545100
  0.6445457811952992  0.3712245829901487  0.4068777020830341
  0.5655307427158008  0.5020050048549686  0.6218598919127751
  0.9198522496301048  0.1242774173316218  0.2178237380757680
  0.3265073692559002  0.8762431077206997  0.2822114846535196
  0.6545671963434370  0.7507596616524335  0.5658051436379626
  0.9878501538089131  0.6250939627166069  0.8443404867200048
  0.7040126609173015  0.8749061697329070  0.0325361649244449
  0.8237463975725997  0.8739929429612577  0.2789189069097058
  0.0050497680102812  0.0033307543398277  0.0034962942840530
  0.2481017146120486 -0.0059691702240266  0.4967940126603679
  0.0999783047953336  0.2548271576997224  0.9425848128223995
  0.2918842829130379  0.1261156228962428  0.9703834589551051
  0.4228940918596822  0.1184299227941613  0.2130233410009894
  0.2632615630860202  0.3762141107331146  0.6544325716049536
  0.1883415243683504  0.4983575380879015  0.8710601485439617
  0.5467779429645442  0.1150298537889018  0.4634026407728993
  0.0303241981259240  0.7513356613348692  0.3097395807932528
  0.3089690724785109  0.4965322792855733  0.1305069037269040
  0.1560638096342675  0.7513714519687558  0.5640979726902355
  0.7197135867388536  0.2525155724568054  0.1880203366788318
  0.8453708198525000  0.2471802589479400  0.4376810803630936
  0.9756729838620085  0.2549800977187172  0.6906146946392804
  0.1984296365590204  0.8737000031742148  0.0314090380500029
  0.4518020644065700  0.8761339919165099  0.5325589822844388
  0.5776588182592841  0.8799484781817907  0.7806851370629250
  0.8602932351841703  0.6280323409318206  0.5969519985779145
  0.9521942464988935  0.8691042254990254  0.5286694847506233
  0.1668975134770579  0.1264533657350771  0.7169374354725805
  0.4964065875800058  0.0000523270632403 -0.0047280392564310
  0.3551630331381154  0.2498686370841791  0.4366144682197651
  0.7556799587402474  0.0053223713979730  0.5147799001844389
  0.6604172947965639  0.1246906189884475  0.7142143521087984
  0.8799664206607339  0.0034383085941608  0.7519966581718807
  0.8002086745229411  0.1265939229210072  0.9631120556980129
  0.4907874044741543  0.6296279545583795  0.8365703915471641
  0.7657423031901166  0.3719060530793821  0.6578421568795840
  0.6841650604036721  0.5029390662382482  0.8703844796126242
  0.9001767164042616  0.3732329881602195  0.9101483112264612
  0.4012516694842060  0.7471423809075901  0.0627353727695062
  0.5286059147162132  0.7537423710066568  0.3191784259844238
  0.7351709659679497  0.6272382598457726  0.3496015638198175
  0.9354244651226461  0.4990673111667305  0.3790404454476137
 
  0.00000000E+00  0.00000000E+00  0.00000000E+00
  0.00000000E+00  0.00000000E+00  0.00000000E+00
  0.00000000E+00  0.00000000E+00  0.00000000E+00
  0.00000000E+00  0.00000000E+00  0.00000000E+00
  0.00000000E+00  0.00000000E+00  0.00000000E+00
  0.00000000E+00  0.00000000E+00  0.00000000E+00
  0.00000000E+00  0.00000000E+00  0.00000000E+00
  0.00000000E+00  0.00000000E+00  0.00000000E+00
  0.00000000E+00  0.00000000E+00  0.00000000E+00
  0.00000000E+00  0.00000000E+00  0.00000000E+00
  0.00000000E+00  0.00000000E+00  0.00000000E+00
  0.00000000E+00  0.00000000E+00  0.00000000E+00
  0.00000000E+00  0.00000000E+00  0.00000000E+00
  0.00000000E+00  0.00000000E+00  0.00000000E+00
  0.00000000E+00  0.00000000E+00  0.00000000E+00
  0.00000000E+00  0.00000000E+00  0.00000000E+00
  0.00000000E+00  0.00000000E+00  0.00000000E+00
  0.00000000E+00  0.00000000E+00  0.00000000E+00
  0.00000000E+00  0.00000000E+00  0.00000000E+00
  0.00000000E+00  0.00000000E+00  0.00000000E+00
  0.00000000E+00  0.00000000E+00  0.00000000E+00
  0.00000000E+00  0.00000000E+00  0.00000000E+00
  0.00000000E+00  0.00000000E+00  0.00000000E+00
  0.00000000E+00  0.00000000E+00  0.00000000E+00
  0.00000000E+00  0.00000000E+00  0.00000000E+00
  0.00000000E+00  0.00000000E+00  0.00000000E+00
  0.00000000E+00  0.00000000E+00  0.00000000E+00
  0.00000000E+00  0.00000000E+00  0.00000000E+00
  0.00000000E+00  0.00000000E+00  0.00000000E+00
  0.00000000E+00  0.00000000E+00  0.00000000E+00
  0.00000000E+00  0.00000000E+00  0.00000000E+00
  0.00000000E+00  0.00000000E+00  0.00000000E+00
  0.00000000E+00  0.00000000E+00  0.00000000E+00
  0.00000000E+00  0.00000000E+00  0.00000000E+00
  0.00000000E+00  0.00000000E+00  0.00000000E+00
  0.00000000E+00  0.00000000E+00  0.00000000E+00
  0.00000000E+00  0.00000000E+00  0.00000000E+00
  0.00000000E+00  0.00000000E+00  0.00000000E+00
  0.00000000E+00  0.00000000E+00  0.00000000E+00
  0.00000000E+00  0.00000000E+00  0.00000000E+00
  0.00000000E+00  0.00000000E+00  0.00000000E+00
  0.00000000E+00  0.00000000E+00  0.00000000E+00
  0.00000000E+00  0.00000000E+00  0.00000000E+00
  0.00000000E+00  0.00000000E+00  0.00000000E+00
  0.00000000E+00  0.00000000E+00  0.00000000E+00
  0.00000000E+00  0.00000000E+00  0.00000000E+00
  0.00000000E+00  0.00000000E+00  0.00000000E+00
  0.00000000E+00  0.00000000E+00  0.00000000E+00
  0.00000000E+00  0.00000000E+00  0.00000000E+00
  0.00000000E+00  0.00000000E+00  0.00000000E+00
  0.00000000E+00  0.00000000E+00  0.00000000E+00
  0.00000000E+00  0.00000000E+00  0.00000000E+00
  0.00000000E+00  0.00000000E+00  0.00000000E+00
  0.00000000E+00  0.00000000E+00  0.00000000E+00
  0.00000000E+00  0.00000000E+00  0.00000000E+00
  0.00000000E+00  0.00000000E+00  0.00000000E+00
  0.00000000E+00  0.00000000E+00  0.00000000E+00
  0.00000000E+00  0.00000000E+00  0.00000000E+00
  0.00000000E+00  0.00000000E+00  0.00000000E+00
  0.00000000E+00  0.00000000E+00  0.00000000E+00
  0.00000000E+00  0.00000000E+00  0.00000000E+00
  0.00000000E+00  0.00000000E+00  0.00000000E+00
  0.00000000E+00  0.00000000E+00  0.00000000E+00
  0.00000000E+00  0.00000000E+00  0.00000000E+00
