FeNiCoMn_SQSbcc64_15_Fe19               
   2.80000000000000     
     1.0188739573476924   -2.0289836396185623    0.0030277048506342
    -3.0654152049940375   -1.0203900581898080    1.0129576052964331
    -0.5172264427371425    0.5101683714875060   -4.5772853123836192
   Fe   Ni   Co   Mn
    19    15    15    15
Direct
  0.3069904686999169  0.9231794074106612  0.0912549064872846
  0.2504493040193392  0.6814998930985847  0.3701582786044645
  0.0571008156986099  0.4871556533179209  0.2193950661817435
  0.6810691756667729  0.8301344474756518  0.4000678160321589
  0.5003376293154908  0.8720311903068185  0.7489505835823348
  0.1291478973831471  0.4694155265850486  0.4379544829803217
  0.7458460354850838  0.8109124987650487  0.6297729361246721
  0.9992195074690052  0.0001999294990029  0.0007363759197750
  0.3771399363267308  0.6590409558101868  0.8130263449341560
  0.8123186329476738  0.7952118186118371  0.8479166722296256
  0.6176997966557441  0.5917695483111064  0.6893006644778955
  0.2499218277749756  0.1870391114032276  0.3689300424094744
  0.0666835297349357  0.2303730963642210  0.7199067361480868
  0.9350890496624726  0.5150164032876605  0.7864226232861194
  0.8115569610224539  0.0489099633087171  0.3425134214765647
  0.5680993195281449  0.3627902734441408  0.9692342350833284
  0.3820357357651604  0.1631078248116412  0.8130225927188403
  0.6871833037472946  0.0770316034866176  0.9056199314930887
  0.9339908803689853  0.0130281216565857  0.7810065605476688
  0.0604495912337211  0.9829765322871811  0.2193949127907834
  0.1839685604271859  0.7042080195593740  0.1542023808776980
  0.0039388962845002  0.4977091392876365  0.9995691394868793
  0.8723707134078971  0.7810072908570272  0.0577708717518571
  0.1910644174849001  0.9569332398325698  0.6607481181382190
  0.9401819059893124  0.7656117644745652  0.2846929870781800
  0.0555487460802116  0.7302566046826993  0.7209267848621567
  0.3090388261133792  0.6698428376312854  0.5925918982877133
  0.5720384455365535  0.6162695172596583  0.4695470309566276
  0.3697419526942794  0.4082100610859213  0.3127661013828172
  0.1880375317425117  0.2048419718678316  0.1520654576883734
  0.6257405396457910  0.3399188703508786  0.1874701685003972
  0.1825451221570756  0.4514202645636503  0.6626239959648528
  0.4371043143507500  0.3880551808407756  0.5316185329725741
  0.2569628150187148  0.4363674912982839  0.8720213175236823
  0.1306753220482543  0.9759943482026410  0.4359345759662874
  0.3724025760521139  0.9032638482905997  0.3142736902463122
  0.4409640094351161  0.6425826479929339  0.0313123981690415
  0.5052663048926462  0.6267067210881028  0.2503119687821289
  0.7530368942949511  0.5646686655971727  0.1214529482884127
  0.4399409978212520  0.1414500600074231  0.0292016998879441
  0.1310012730271117  0.7162189674372931  0.9376870826290863
  0.5568579556181128  0.8592877557216697  0.9682277194939868
  0.4975409342539926  0.1185292857529056  0.2485231259965871
  0.9485294068465605  0.2680064777110275  0.2849293527784749
  0.6812305456973050  0.5765244590287590  0.9044908087747713
  0.5047691039612389  0.3731174871050453  0.7468818954590760
  0.3157894933981146  0.1706655573242544  0.5950388988408809
  0.7572372403738226  0.3136727582195191  0.6292517696219482
  0.8123678669250027  0.2959065330875181  0.8431511715588431
  0.6240892095884580  0.8383826723891836  0.1858299475292777
  0.0050572186955429  0.7607122862318488  0.5024355340813290
  0.4275581127252114  0.8872241184068176  0.5305429845056834
  0.3184780250281836  0.4285611983584952  0.0986053372352028
  0.2465157113757336  0.9384360809476610  0.8748021306704320
  0.8083020925515463  0.5459587120549405  0.3414648339009787
  0.8781143306135767  0.2856648117536693  0.0643163168754457
  0.0046047392145981  0.2478079035575923  0.5031561760427182
  0.8742072402284907  0.5281398782889373  0.5644754375619687
  0.6800410848366010  0.3220801824811927  0.4009819003665566
  0.7484303651582693  0.0629685497893537  0.1252132576110311
  0.5626891840621113  0.1125544245643876  0.4700570501102647
  0.1292631774116832  0.2174054707334652  0.9340266937225968
  0.6274323531930753  0.0946026423787515  0.6889126046631361
  0.8569950452326095  0.0314294426628358  0.5613107196491253
 
  0.00000000E+00  0.00000000E+00  0.00000000E+00
  0.00000000E+00  0.00000000E+00  0.00000000E+00
  0.00000000E+00  0.00000000E+00  0.00000000E+00
  0.00000000E+00  0.00000000E+00  0.00000000E+00
  0.00000000E+00  0.00000000E+00  0.00000000E+00
  0.00000000E+00  0.00000000E+00  0.00000000E+00
  0.00000000E+00  0.00000000E+00  0.00000000E+00
  0.00000000E+00  0.00000000E+00  0.00000000E+00
  0.00000000E+00  0.00000000E+00  0.00000000E+00
  0.00000000E+00  0.00000000E+00  0.00000000E+00
  0.00000000E+00  0.00000000E+00  0.00000000E+00
  0.00000000E+00  0.00000000E+00  0.00000000E+00
  0.00000000E+00  0.00000000E+00  0.00000000E+00
  0.00000000E+00  0.00000000E+00  0.00000000E+00
  0.00000000E+00  0.00000000E+00  0.00000000E+00
  0.00000000E+00  0.00000000E+00  0.00000000E+00
  0.00000000E+00  0.00000000E+00  0.00000000E+00
  0.00000000E+00  0.00000000E+00  0.00000000E+00
  0.00000000E+00  0.00000000E+00  0.00000000E+00
  0.00000000E+00  0.00000000E+00  0.00000000E+00
  0.00000000E+00  0.00000000E+00  0.00000000E+00
  0.00000000E+00  0.00000000E+00  0.00000000E+00
  0.00000000E+00  0.00000000E+00  0.00000000E+00
  0.00000000E+00  0.00000000E+00  0.00000000E+00
  0.00000000E+00  0.00000000E+00  0.00000000E+00
  0.00000000E+00  0.00000000E+00  0.00000000E+00
  0.00000000E+00  0.00000000E+00  0.00000000E+00
  0.00000000E+00  0.00000000E+00  0.00000000E+00
  0.00000000E+00  0.00000000E+00  0.00000000E+00
  0.00000000E+00  0.00000000E+00  0.00000000E+00
  0.00000000E+00  0.00000000E+00  0.00000000E+00
  0.00000000E+00  0.00000000E+00  0.00000000E+00
  0.00000000E+00  0.00000000E+00  0.00000000E+00
  0.00000000E+00  0.00000000E+00  0.00000000E+00
  0.00000000E+00  0.00000000E+00  0.00000000E+00
  0.00000000E+00  0.00000000E+00  0.00000000E+00
  0.00000000E+00  0.00000000E+00  0.00000000E+00
  0.00000000E+00  0.00000000E+00  0.00000000E+00
  0.00000000E+00  0.00000000E+00  0.00000000E+00
  0.00000000E+00  0.00000000E+00  0.00000000E+00
  0.00000000E+00  0.00000000E+00  0.00000000E+00
  0.00000000E+00  0.00000000E+00  0.00000000E+00
  0.00000000E+00  0.00000000E+00  0.00000000E+00
  0.00000000E+00  0.00000000E+00  0.00000000E+00
  0.00000000E+00  0.00000000E+00  0.00000000E+00
  0.00000000E+00  0.00000000E+00  0.00000000E+00
  0.00000000E+00  0.00000000E+00  0.00000000E+00
  0.00000000E+00  0.00000000E+00  0.00000000E+00
  0.00000000E+00  0.00000000E+00  0.00000000E+00
  0.00000000E+00  0.00000000E+00  0.00000000E+00
  0.00000000E+00  0.00000000E+00  0.00000000E+00
  0.00000000E+00  0.00000000E+00  0.00000000E+00
  0.00000000E+00  0.00000000E+00  0.00000000E+00
  0.00000000E+00  0.00000000E+00  0.00000000E+00
  0.00000000E+00  0.00000000E+00  0.00000000E+00
  0.00000000E+00  0.00000000E+00  0.00000000E+00
  0.00000000E+00  0.00000000E+00  0.00000000E+00
  0.00000000E+00  0.00000000E+00  0.00000000E+00
  0.00000000E+00  0.00000000E+00  0.00000000E+00
  0.00000000E+00  0.00000000E+00  0.00000000E+00
  0.00000000E+00  0.00000000E+00  0.00000000E+00
  0.00000000E+00  0.00000000E+00  0.00000000E+00
  0.00000000E+00  0.00000000E+00  0.00000000E+00
  0.00000000E+00  0.00000000E+00  0.00000000E+00
