FeCoCrPd_SQSbcc64                       
   1.00000000000000     
     6.2168229795886374    5.5654180225300998   -5.7578388301498533
    -6.0645035620579089   -5.6200969697488583   -5.6765120969721385
    -6.3879254065194617    5.7856088327219899    5.8111968356339796
   Fe   Co   Cr   Pd
    16    16    16    16
Direct
  0.0291987413918035  0.7745177464622890  0.7885241256048700
  0.9760740255225560  0.2457030088891256  0.7505695814786914
  0.2695924683236098  0.0274627088301311  0.8103927871428354
  0.9709785859728475  0.2385046092336763  0.5078252933182187
  0.2630500319704744  0.7492225641150059  0.4838750454569976
  0.0407064931522594  0.7898673981590092  0.2943000776657180
  0.7568264446409980  0.7544903300869681  0.6761947309225731
  0.5080863807456100  0.7485485914882499  0.4726419206048422
  0.4999424370692692  0.9989868699875677  0.5137382808982138
  0.2522688131737643  0.4975576545199573  0.2348301314820599
  0.2298409312890603  0.2400187086112176  0.2375792823394661
  0.9871504524503470  0.2629582102316834 -0.0016031310459117
  0.4966485949980829  0.2645467087790793  0.3198315450643472
  0.4977159665113778  0.9909406263970514  0.2630663672168498
  0.2180596758500545  0.2353062997238795  0.9778319811796005
  0.4935800307718284  0.2529722132719964  0.0690504856198497
  0.0234369170224188  0.5198583239742739  0.7378631997985307
  0.1906669827565064  0.2046639872577511  0.7156113132107150
  0.0284132166817769  0.5228658436542716  0.2348961027248783
  0.9676271645349942  0.9743433813680979  0.1976246597880944
  0.7440783619115275  0.0003219776752031  0.7284031709517239
  0.4997459901026077  0.4977283522172490  0.4886712147427311
  0.2640536333173930  0.7499913451532327  0.2429202327175881
  0.2757678084855914  0.0203357164605227  0.3138375071282875
  0.0262138862422155  0.5056913795489419  0.9769247746302405
  0.4762994875423722  0.4628714813534348  0.2347895562595674
  0.2677602516340963  0.7416934325804315  0.9977785569504396
  0.7558458149000279  0.7477603557610700  0.1785408918165767
  0.7472980694283886  0.9911000863968258  0.2382422470380867
  0.5039327369346954  0.9926838934705022  0.0241800178893839
  0.7485880874708709  0.7493196585323654  0.9389778883682721
  0.7292048000162142  0.9823704053006295  0.9945436638225580
  0.9782961000846728  0.9923527684871619  0.7098067150913269
  0.2304603437859682  0.4663668745574079  0.7440478241682547
  0.0213494861942981  0.5026044912749090  0.4780127833599391
  0.9617699829561072  0.9782457856946076  0.4418446470344656
  0.5225112605349227  0.7453177497542451  0.7127912441043053
  0.2443255456940540  0.4891855860051811  0.4861604090993714
  0.2739472149438253  0.0136560879046595  0.5538981025645123
  0.9865574509824935  0.2455228405246986  0.2472508871222494
  0.7356836194674289  0.2567434266937797  0.7895737560184151
  0.4897273050333929  0.2596063871142490  0.5555350937961899
  0.7325505252763512  0.7248120815224649  0.4429583974297357
  0.7810710389675098  0.5266420360262694  0.5099694199894074
  0.7398454919467208  0.9985260526161165  0.4912269998081612
  0.2500295432764907  0.4821952928893951  0.9718506328371953
  0.5050389989290530  0.7324481383228950  0.9639965333133020
  0.4922708259162235  0.4877633412005775  0.0051508928217126
  0.2652413914267378  0.7405454728819484  0.7458869783637014
  0.0332638679611279  0.7853614674317494  0.5432406747179690
  0.4784763978120368  0.4871259512139796  0.7328909360621918
  0.4915561259861604  0.2645002510015190  0.8188613491053055
  0.5026417580787716  0.9939405840567493  0.7649678896726433
  0.2007202013406784  0.2144319872484542  0.4688325201197748
  0.7717840424422493  0.5273983844193396  0.7515133711326870
  0.0389175499708703  0.7772153206805190  0.0431412912285206
  0.9711271973358945 -0.0058510956214165  0.9568326081699881
  0.7330989251079129  0.2581659589795474  0.5438531010253491
  0.5138665918623959  0.7344026864705022  0.2194478124564364
  0.2717344800542360  0.0183398273734965  0.0574674523895045
  0.7717711301384992  0.5268762674736854  0.2598845794993250
  0.7354219984125933  0.2517846700861951  0.2900037897379409
  0.7900634519793592  0.5315097609621233  0.0146667653383585
  0.7462268732852956  0.2570596952612968  0.0419810396348713
 
  0.00000000E+00  0.00000000E+00  0.00000000E+00
  0.00000000E+00  0.00000000E+00  0.00000000E+00
  0.00000000E+00  0.00000000E+00  0.00000000E+00
  0.00000000E+00  0.00000000E+00  0.00000000E+00
  0.00000000E+00  0.00000000E+00  0.00000000E+00
  0.00000000E+00  0.00000000E+00  0.00000000E+00
  0.00000000E+00  0.00000000E+00  0.00000000E+00
  0.00000000E+00  0.00000000E+00  0.00000000E+00
  0.00000000E+00  0.00000000E+00  0.00000000E+00
  0.00000000E+00  0.00000000E+00  0.00000000E+00
  0.00000000E+00  0.00000000E+00  0.00000000E+00
  0.00000000E+00  0.00000000E+00  0.00000000E+00
  0.00000000E+00  0.00000000E+00  0.00000000E+00
  0.00000000E+00  0.00000000E+00  0.00000000E+00
  0.00000000E+00  0.00000000E+00  0.00000000E+00
  0.00000000E+00  0.00000000E+00  0.00000000E+00
  0.00000000E+00  0.00000000E+00  0.00000000E+00
  0.00000000E+00  0.00000000E+00  0.00000000E+00
  0.00000000E+00  0.00000000E+00  0.00000000E+00
  0.00000000E+00  0.00000000E+00  0.00000000E+00
  0.00000000E+00  0.00000000E+00  0.00000000E+00
  0.00000000E+00  0.00000000E+00  0.00000000E+00
  0.00000000E+00  0.00000000E+00  0.00000000E+00
  0.00000000E+00  0.00000000E+00  0.00000000E+00
  0.00000000E+00  0.00000000E+00  0.00000000E+00
  0.00000000E+00  0.00000000E+00  0.00000000E+00
  0.00000000E+00  0.00000000E+00  0.00000000E+00
  0.00000000E+00  0.00000000E+00  0.00000000E+00
  0.00000000E+00  0.00000000E+00  0.00000000E+00
  0.00000000E+00  0.00000000E+00  0.00000000E+00
  0.00000000E+00  0.00000000E+00  0.00000000E+00
  0.00000000E+00  0.00000000E+00  0.00000000E+00
  0.00000000E+00  0.00000000E+00  0.00000000E+00
  0.00000000E+00  0.00000000E+00  0.00000000E+00
  0.00000000E+00  0.00000000E+00  0.00000000E+00
  0.00000000E+00  0.00000000E+00  0.00000000E+00
  0.00000000E+00  0.00000000E+00  0.00000000E+00
  0.00000000E+00  0.00000000E+00  0.00000000E+00
  0.00000000E+00  0.00000000E+00  0.00000000E+00
  0.00000000E+00  0.00000000E+00  0.00000000E+00
  0.00000000E+00  0.00000000E+00  0.00000000E+00
  0.00000000E+00  0.00000000E+00  0.00000000E+00
  0.00000000E+00  0.00000000E+00  0.00000000E+00
  0.00000000E+00  0.00000000E+00  0.00000000E+00
  0.00000000E+00  0.00000000E+00  0.00000000E+00
  0.00000000E+00  0.00000000E+00  0.00000000E+00
  0.00000000E+00  0.00000000E+00  0.00000000E+00
  0.00000000E+00  0.00000000E+00  0.00000000E+00
  0.00000000E+00  0.00000000E+00  0.00000000E+00
  0.00000000E+00  0.00000000E+00  0.00000000E+00
  0.00000000E+00  0.00000000E+00  0.00000000E+00
  0.00000000E+00  0.00000000E+00  0.00000000E+00
  0.00000000E+00  0.00000000E+00  0.00000000E+00
  0.00000000E+00  0.00000000E+00  0.00000000E+00
  0.00000000E+00  0.00000000E+00  0.00000000E+00
  0.00000000E+00  0.00000000E+00  0.00000000E+00
  0.00000000E+00  0.00000000E+00  0.00000000E+00
  0.00000000E+00  0.00000000E+00  0.00000000E+00
  0.00000000E+00  0.00000000E+00  0.00000000E+00
  0.00000000E+00  0.00000000E+00  0.00000000E+00
  0.00000000E+00  0.00000000E+00  0.00000000E+00
  0.00000000E+00  0.00000000E+00  0.00000000E+00
  0.00000000E+00  0.00000000E+00  0.00000000E+00
  0.00000000E+00  0.00000000E+00  0.00000000E+00
