FeNiCoCr_sqsbcc64_Config02              
   3.00000000000000     
     2.0455413902415764    1.6792615895599918   -2.0506502175428469
    -1.9069693665066256   -1.6675801657838334   -1.9033190236675745
    -2.0376410115923127    1.6609429507247699    2.0387008345945343
   Fe   Ni   Co   Cr
    16    16    16    16
Direct
  0.0192393144902258  0.7472011775810409  0.7261664777224744
  0.0184441493109175  0.2481457487595227  0.7266127203346904
  0.2254112086891334  0.9925459979861566  0.7639743802799728
  0.0253129054652625  0.2527774227015002  0.4833372065699406
  0.2748278431082439  0.7564377951915998  0.4868545197929702
  0.0214987568985639  0.7510533545487488  0.2291957310503875
  0.7748061672734450  0.7524205442633621  0.7324018910594633
  0.5170327564792099  0.7499151793807818  0.4776817510135930
  0.4826721900141561  0.0051038439735592  0.5245473165244131
  0.2269278864316705  0.4959263968801025  0.2702851822009147
  0.2691342399777214  0.2445358405215981  0.2263263807893121
  0.0218255798978788  0.2458421213172276  0.9764579944268046
  0.5234303265061887  0.2531624482920450  0.2327005603958671
  0.4803519492653989  0.0014964664902954  0.2741601440108044
  0.2724272332602539  0.2518513451233015  0.9774980000513680
  0.5168546970505522  0.2455399737991401  0.9778300975977635
  0.9807419152009385  0.5007350424956876  0.7719403694163719
  0.2724544889461911  0.2505665816967892  0.7303728137087750
  0.9826729518002744  0.5017416577578527  0.2733782530457143
  0.9785691853860330  1.0000042336533750  0.2710278487457218
  0.7283753693592818  0.0002332789065515  0.7679854692773884
  0.4809292544946582  0.4994135097764358  0.5229402216984327
  0.2684705606057057  0.7494508065730595  0.2271717705837399
  0.2317975015754583  0.9994366621310474  0.2738810755015597
  0.9825926862785924  0.5021604868529952  0.0208611014310580
  0.4798156330732100  0.5011578802223543  0.2737860343050304
  0.2701027644341435  0.7478764788168901  0.9794748233440048
  0.7676683211528884  0.7488472383412280  0.2281295533669848
  0.7319638275055748  0.0042674631634377  0.2712197376632305
  0.4773906081402690  0.0002571190935988  0.0222839464782108
  0.7664512425793629  0.7466075341406339  0.9792149933296008
  0.7282190711833567  0.9994839284804514  0.0183149885407329
  0.9800756662339534  0.9962412859618403  0.7710454464005287
  0.2302825294445193  0.4980681736602968  0.7740780838221990
  0.9798130601539484  0.5013681525163954  0.5208009486643481
  0.9772185543569561  0.9995671696664172  0.5218061218960588
  0.5223587273219463  0.7492390081599178  0.7279698448386760
  0.2340901896645479  0.5030540188132728  0.5234363382422098
  0.2278911893097179  0.0030755029998436  0.5202068054433745
  0.0193987166267873  0.2508040196023325  0.2328281063111002
  0.7721036799713062  0.2507239223765398  0.7299867055788872
  0.5217846572257986  0.2551196313057131  0.4815223373349832
  0.7708210422329395  0.7505892146726679  0.4790695593121128
  0.7297555973510303  0.4992653481399299  0.5208423752879073
  0.7295564404190148  0.0003021537062820  0.5222920485323148
  0.2331815557070678  0.5012210179176407  0.0246896770868732
  0.5174997402314560  0.7483055127849597  0.9774499520441069
  0.4804097489109474  0.4992388768059283  0.0198991977903413
  0.2727802240974219  0.7419898208750817  0.7316403088865053
  0.0155763908976781  0.7507242842403861  0.4735255234577357
  0.4729207595361682  0.5075178154173757  0.7702635645863487
  0.5213700320163576  0.2442979332898253  0.7280002476655610
  0.4789444104756049  0.0008487952507002  0.7717167920099690
  0.2691481063716193  0.2457673644835857  0.4736148305755207
  0.7250837812207932  0.4920045966059276  0.7725984997436661
  0.0188542687381766  0.7558390244168305  0.9723047720716699
  0.9803100430699854  0.0069169641483024  0.0230359705516938
  0.7684091438343340  0.2523093863359924  0.4773705676417924
  0.5223865362584162  0.7511556798155996  0.2303240026906269
  0.2295293805289950  0.9980562281995941  0.0188003824025081
  0.7250138570393246  0.4977775519113798  0.2712077536309872
  0.7633883905498677  0.2533778487941898  0.2171205323049266
  0.7327870768878274  0.4961722452650020  0.0239999318828312
  0.7788439174807479  0.2528658929478035  0.9785394170543419
 
  0.00000000E+00  0.00000000E+00  0.00000000E+00
  0.00000000E+00  0.00000000E+00  0.00000000E+00
  0.00000000E+00  0.00000000E+00  0.00000000E+00
  0.00000000E+00  0.00000000E+00  0.00000000E+00
  0.00000000E+00  0.00000000E+00  0.00000000E+00
  0.00000000E+00  0.00000000E+00  0.00000000E+00
  0.00000000E+00  0.00000000E+00  0.00000000E+00
  0.00000000E+00  0.00000000E+00  0.00000000E+00
  0.00000000E+00  0.00000000E+00  0.00000000E+00
  0.00000000E+00  0.00000000E+00  0.00000000E+00
  0.00000000E+00  0.00000000E+00  0.00000000E+00
  0.00000000E+00  0.00000000E+00  0.00000000E+00
  0.00000000E+00  0.00000000E+00  0.00000000E+00
  0.00000000E+00  0.00000000E+00  0.00000000E+00
  0.00000000E+00  0.00000000E+00  0.00000000E+00
  0.00000000E+00  0.00000000E+00  0.00000000E+00
  0.00000000E+00  0.00000000E+00  0.00000000E+00
  0.00000000E+00  0.00000000E+00  0.00000000E+00
  0.00000000E+00  0.00000000E+00  0.00000000E+00
  0.00000000E+00  0.00000000E+00  0.00000000E+00
  0.00000000E+00  0.00000000E+00  0.00000000E+00
  0.00000000E+00  0.00000000E+00  0.00000000E+00
  0.00000000E+00  0.00000000E+00  0.00000000E+00
  0.00000000E+00  0.00000000E+00  0.00000000E+00
  0.00000000E+00  0.00000000E+00  0.00000000E+00
  0.00000000E+00  0.00000000E+00  0.00000000E+00
  0.00000000E+00  0.00000000E+00  0.00000000E+00
  0.00000000E+00  0.00000000E+00  0.00000000E+00
  0.00000000E+00  0.00000000E+00  0.00000000E+00
  0.00000000E+00  0.00000000E+00  0.00000000E+00
  0.00000000E+00  0.00000000E+00  0.00000000E+00
  0.00000000E+00  0.00000000E+00  0.00000000E+00
  0.00000000E+00  0.00000000E+00  0.00000000E+00
  0.00000000E+00  0.00000000E+00  0.00000000E+00
  0.00000000E+00  0.00000000E+00  0.00000000E+00
  0.00000000E+00  0.00000000E+00  0.00000000E+00
  0.00000000E+00  0.00000000E+00  0.00000000E+00
  0.00000000E+00  0.00000000E+00  0.00000000E+00
  0.00000000E+00  0.00000000E+00  0.00000000E+00
  0.00000000E+00  0.00000000E+00  0.00000000E+00
  0.00000000E+00  0.00000000E+00  0.00000000E+00
  0.00000000E+00  0.00000000E+00  0.00000000E+00
  0.00000000E+00  0.00000000E+00  0.00000000E+00
  0.00000000E+00  0.00000000E+00  0.00000000E+00
  0.00000000E+00  0.00000000E+00  0.00000000E+00
  0.00000000E+00  0.00000000E+00  0.00000000E+00
  0.00000000E+00  0.00000000E+00  0.00000000E+00
  0.00000000E+00  0.00000000E+00  0.00000000E+00
  0.00000000E+00  0.00000000E+00  0.00000000E+00
  0.00000000E+00  0.00000000E+00  0.00000000E+00
  0.00000000E+00  0.00000000E+00  0.00000000E+00
  0.00000000E+00  0.00000000E+00  0.00000000E+00
  0.00000000E+00  0.00000000E+00  0.00000000E+00
  0.00000000E+00  0.00000000E+00  0.00000000E+00
  0.00000000E+00  0.00000000E+00  0.00000000E+00
  0.00000000E+00  0.00000000E+00  0.00000000E+00
  0.00000000E+00  0.00000000E+00  0.00000000E+00
  0.00000000E+00  0.00000000E+00  0.00000000E+00
  0.00000000E+00  0.00000000E+00  0.00000000E+00
  0.00000000E+00  0.00000000E+00  0.00000000E+00
  0.00000000E+00  0.00000000E+00  0.00000000E+00
  0.00000000E+00  0.00000000E+00  0.00000000E+00
  0.00000000E+00  0.00000000E+00  0.00000000E+00
  0.00000000E+00  0.00000000E+00  0.00000000E+00
