FeNiCrPd_SQSfcc64_12_Pd28               
   3.80000000000000     
    -1.9834929237835055    1.4913913087091517    0.5004403675536450
     1.9829350307392786    1.4930215795781323    0.4932863600455587
     0.0046666268850428    0.5044922837222847   -2.5056861506164938
   Fe   Ni   Cr   Pd
    12    12    12    28
Direct
  0.6628476366991171  0.4103467511752443  0.8135232208884504
  0.8406834937559345  0.5884874458109153  0.6886288260366764
  0.5080223450331401  0.9985891510479346  0.5047404716320854
  0.5662954587146775  0.5650697972502577  0.6298826813698821
  0.5981317659757874  0.8452706933164479  0.6891889992941389
  0.8444833903930916  0.0962064332505274  0.1862934971823177
  0.8776163904202116  0.3849707124950053  0.2496980273969487
  0.7912155696424630  0.5313245523734229  0.0712788751682857
  0.1154078588787480  0.1189668594936546  0.2574310824133050
  0.2097276027112427  0.9654336596023992  0.4330134153376388
  0.5346245394768705  0.7878329990404647  0.0644694851814075
  0.0887303421496439  0.8420261878520716  0.1948559133750423
  0.9339789312843455  0.4444161219921503  0.8840962011343269
  0.4726825860841555  0.2183717747179892  0.9399039294404061
  0.7165611863827126  0.9680790028368168  0.9428039244223901
  0.7749882340171909  0.0363001252964589  0.5614285879315123
  0.2144186798926169  0.4664426757593193  0.9331617399405440
  0.9084670199564123  0.6573605738855828  0.3051237264106830
  0.9453027203764952  0.9362240916414452  0.3748858538157144
  0.5667194187670311  0.0685817045438214  0.1227419343164438
  0.5970353567640254  0.3395079282762652  0.1846265393910813
  0.0303338235564372  0.7850720332161542  0.5555362466085235
  0.1441605882641834  0.3929908727763082  0.3031514879230717
  0.0545939564409400  0.5558185431244530  0.1237944372264284
  0.9676732855472721  0.7081863943467483  0.9464050592532119
  0.8192609399039864  0.3216804111197719  0.6370828933250403
  0.8672440740251149  0.8832523710338316  0.7467471191162709
  0.3849478014275871  0.3716043242826714  0.7574114113139616
  0.4085521598597750  0.6616200889892822  0.8137950453627503
  0.6823540170220482  0.1897936392988437  0.3631877096394236
  0.0487243971385614  0.0530942594610865  0.6186622400474000
  0.0961106626176114  0.3479806598392834  0.6928196171855351
  0.2400842430079034  0.2360436986370669  0.4846064962750471
  0.4167498415030864  0.1590624800751885  0.3122488075522479
  0.2850462525564217  0.0295580036276872  0.0554950176923985
  0.0359660309319536  0.2936004036815906  0.0583067774238981
  0.9083725058969695  0.1622660382481821  0.8112046890106659
  0.6266902682975887  0.1239308938279455  0.7510190727021524
  0.6923856292938479  0.6899787069109362  0.8726508995292847
  0.9608777772211183  0.2130542076567679  0.4352901122609432
  0.1907586780176582  0.1928934964617935  0.8714768009960471
  0.3363933381986601  0.0956948238859052  0.6751569129773917
  0.4431043584746055  0.9365941975376194  0.8810099126796187
  0.5336292346781142  0.2828500470049919  0.5647180722440339
  0.7221139506346145  0.4650662741642189  0.4363279468664094
  0.7608463952081820  0.7562847431565978  0.5083373336259049
  0.1165242524253179  0.6186493314338372  0.7536950627386190
  0.1447505636295990  0.9033807882399395  0.8080036673591174
  0.2857815759160067  0.5174734518480780  0.5673886216381132
  0.3115244231312995  0.8116510390087713  0.6216781735048824
  0.4346697231607086  0.4299478906681390  0.3716227089043274
  0.4750598558374464  0.7209419487906352  0.4426319419253877
  0.6291450509292250  0.6237305333388899  0.2437843428341492
  0.6642683078305399  0.9212387701537237  0.3133797801943916
  0.7508788128753201  0.2547126060328675  0.0083065690431870
  0.8172135487828355  0.8140414400358296  0.1268124416472109
  0.0001894651649850  0.4998656408018810  0.4984085615666284
  0.1800543823903203  0.6876606954825590  0.3686041758015016
  0.3074666854032621  0.2984744244537513  0.1268946508161803
  0.3367366887154113  0.5877634116245365  0.1838130301439689
  0.3767493709401531  0.8883305953324475  0.2508308975106111
  0.5000003589982924  0.4946026829893011  0.9948270855669711
  0.0005141725216246  0.0020286591341331  0.0060041851217934
  0.2435580242475041  0.7477252366075594  0.0050950527660270
 
  0.00000000E+00  0.00000000E+00  0.00000000E+00
  0.00000000E+00  0.00000000E+00  0.00000000E+00
  0.00000000E+00  0.00000000E+00  0.00000000E+00
  0.00000000E+00  0.00000000E+00  0.00000000E+00
  0.00000000E+00  0.00000000E+00  0.00000000E+00
  0.00000000E+00  0.00000000E+00  0.00000000E+00
  0.00000000E+00  0.00000000E+00  0.00000000E+00
  0.00000000E+00  0.00000000E+00  0.00000000E+00
  0.00000000E+00  0.00000000E+00  0.00000000E+00
  0.00000000E+00  0.00000000E+00  0.00000000E+00
  0.00000000E+00  0.00000000E+00  0.00000000E+00
  0.00000000E+00  0.00000000E+00  0.00000000E+00
  0.00000000E+00  0.00000000E+00  0.00000000E+00
  0.00000000E+00  0.00000000E+00  0.00000000E+00
  0.00000000E+00  0.00000000E+00  0.00000000E+00
  0.00000000E+00  0.00000000E+00  0.00000000E+00
  0.00000000E+00  0.00000000E+00  0.00000000E+00
  0.00000000E+00  0.00000000E+00  0.00000000E+00
  0.00000000E+00  0.00000000E+00  0.00000000E+00
  0.00000000E+00  0.00000000E+00  0.00000000E+00
  0.00000000E+00  0.00000000E+00  0.00000000E+00
  0.00000000E+00  0.00000000E+00  0.00000000E+00
  0.00000000E+00  0.00000000E+00  0.00000000E+00
  0.00000000E+00  0.00000000E+00  0.00000000E+00
  0.00000000E+00  0.00000000E+00  0.00000000E+00
  0.00000000E+00  0.00000000E+00  0.00000000E+00
  0.00000000E+00  0.00000000E+00  0.00000000E+00
  0.00000000E+00  0.00000000E+00  0.00000000E+00
  0.00000000E+00  0.00000000E+00  0.00000000E+00
  0.00000000E+00  0.00000000E+00  0.00000000E+00
  0.00000000E+00  0.00000000E+00  0.00000000E+00
  0.00000000E+00  0.00000000E+00  0.00000000E+00
  0.00000000E+00  0.00000000E+00  0.00000000E+00
  0.00000000E+00  0.00000000E+00  0.00000000E+00
  0.00000000E+00  0.00000000E+00  0.00000000E+00
  0.00000000E+00  0.00000000E+00  0.00000000E+00
  0.00000000E+00  0.00000000E+00  0.00000000E+00
  0.00000000E+00  0.00000000E+00  0.00000000E+00
  0.00000000E+00  0.00000000E+00  0.00000000E+00
  0.00000000E+00  0.00000000E+00  0.00000000E+00
  0.00000000E+00  0.00000000E+00  0.00000000E+00
  0.00000000E+00  0.00000000E+00  0.00000000E+00
  0.00000000E+00  0.00000000E+00  0.00000000E+00
  0.00000000E+00  0.00000000E+00  0.00000000E+00
  0.00000000E+00  0.00000000E+00  0.00000000E+00
  0.00000000E+00  0.00000000E+00  0.00000000E+00
  0.00000000E+00  0.00000000E+00  0.00000000E+00
  0.00000000E+00  0.00000000E+00  0.00000000E+00
  0.00000000E+00  0.00000000E+00  0.00000000E+00
  0.00000000E+00  0.00000000E+00  0.00000000E+00
  0.00000000E+00  0.00000000E+00  0.00000000E+00
  0.00000000E+00  0.00000000E+00  0.00000000E+00
  0.00000000E+00  0.00000000E+00  0.00000000E+00
  0.00000000E+00  0.00000000E+00  0.00000000E+00
  0.00000000E+00  0.00000000E+00  0.00000000E+00
  0.00000000E+00  0.00000000E+00  0.00000000E+00
  0.00000000E+00  0.00000000E+00  0.00000000E+00
  0.00000000E+00  0.00000000E+00  0.00000000E+00
  0.00000000E+00  0.00000000E+00  0.00000000E+00
  0.00000000E+00  0.00000000E+00  0.00000000E+00
  0.00000000E+00  0.00000000E+00  0.00000000E+00
  0.00000000E+00  0.00000000E+00  0.00000000E+00
  0.00000000E+00  0.00000000E+00  0.00000000E+00
  0.00000000E+00  0.00000000E+00  0.00000000E+00
