FeNiCrPd_SQSfcc64_14_Ni22               
   3.80000000000000     
    -1.9302408613431612    1.4516212538432973    0.4870119172979714
     1.9295840370308188    1.4525414779797485    0.4816103558344816
     0.0034835234513509    0.4849760510914369   -2.4243935913203307
   Fe   Ni   Cr   Pd
    14    22    14    14
Direct
  0.8913825284296678  0.1565815967215567  0.8220556705241464
  0.7141944694935027  0.9683119547926651  0.9442618393601752
  0.4377049822415962  0.9354107418002391  0.8786073588570738
  0.4986399515462935  0.9898663280433491  0.4927167182657886
  0.5604562803892927  0.5651217984006204  0.6198216609713146
  0.7272111943329826  0.4662673051739922  0.4254283799449231
  0.9158176175946076  0.6634268355058989  0.3145449659481239
  0.4109252961432734  0.1612308810077715  0.3099578775217711
  0.5625480547466687  0.0611425857501435  0.1273654490840066
  0.6209853432214270  0.6186135766829302  0.2481212174388760
  0.6507231875929936  0.8997149984493498  0.3028604280754352
  0.0070100998145231  0.5180386505861225  0.4930406454301313
  0.0384725177089871  0.7776828619515563  0.5642288472843865
  0.3535377989627783  0.6054698704631283  0.1966811755475379
  0.9396478702746779  0.4433017150427280  0.8791541040348755
  0.9767643085741978  0.7161020059300056  0.9454804523501695
  0.6167421387561604  0.1141495079653032  0.7540530526032364
  0.8493644811816287  0.5920279892095103  0.6850832865456402
  0.5886923139260234  0.8461654773727330  0.6872006958149520
  0.8337207345660929  0.0829287785247960  0.1858833312835126
  0.9337165209697208  0.9385428120752852  0.3629862215177155
  0.1657941414988305  0.8984544276277269  0.8123290539129995
  0.2495367986712918  0.2617335148298526  0.4878734489151503
  0.2806641264586769  0.5353126762554045  0.5517131839494078
  0.4417342149056870  0.4433226067161647  0.3724062567073778
  0.4675178674775327  0.7180715588185348  0.4353931822381970
  0.5914145466993282  0.3433476266402904  0.1898320597637588
  0.7412427599191588  0.2409863757476062  0.0090484259423629
  0.8111446820495036  0.8072807899600767  0.1343700319654438
  0.1197577417138526  0.1266134660623548  0.2494115750928733
  0.1912902916542340  0.6895434938953616  0.3729637354022370
  0.5010450093984159  0.4935168006995084  0.0118787398676635
  0.9893042500717191  0.9914944537303153  0.0110862354109953
  0.0634036992726486  0.5682203057005616  0.1356726845603806
  0.0841175979824017  0.8353754569327222  0.1852067619060977
  0.2503147730829685  0.7483124635598902  0.0092593589834673
  0.4758579844161530  0.2092763195227880  0.9455140376708058
  0.9694709013875885  0.2304484672305943  0.4113776188101413
  0.3403201873855278  0.0975298470649374  0.6873676983592680
  0.3696365590781359  0.3714034021712064  0.7426241490230565
  0.6773267165423215  0.1767886601950506  0.3620295593311192
  0.8695593990861984  0.3823039717654584  0.2508122606519713
  0.1089735475693236  0.3623021873559497  0.6826484290164399
  0.1132988890937985  0.6247333501520237  0.7503644782868953
  0.3218971769266520  0.8234858539143955  0.6211729856602838
  0.7880971322093570  0.5237681608475311  0.0682539900505741
  0.1666874001650900  0.4184519480492790  0.3148805138277549
  0.3156726794027993  0.3118183703743078  0.1317514796082604
  0.3784239193516154  0.8738304401497901  0.2556023852860762
  0.5354596123101637  0.7759733907102327  0.0644252380258746
  0.6542642848801942  0.3974309540096642  0.8195678845749668
  0.6922050778112891  0.6874273791083437  0.8806154350013227
  0.7729110375492576  0.0324566171456988  0.5560097861275833
  0.8263761360881056  0.3189987526636795  0.6205527446030699
  0.8849655797544544  0.8774975724609063  0.7583561811710794
  0.1822092484527486  0.1827173940354838  0.8765347851910991
  0.2202319508635061  0.4726105273169414  0.9491896960283243
  0.4012883043160991  0.6572710799161434  0.8070492509898466
  0.5291873889191206  0.2782166333704193  0.5545602923712812
  0.7509509278157878  0.7448230118088950  0.4954016956849092
  0.0612236364950143  0.0722851331290469  0.6157744855045769
  0.2190438151028931  0.9714681820396288  0.4263925466138409
  0.2780730541100041  0.0224279140722474  0.0701291572921935
  0.0198472615934586  0.2805701907932547  0.0730631222152031
 
  0.00000000E+00  0.00000000E+00  0.00000000E+00
  0.00000000E+00  0.00000000E+00  0.00000000E+00
  0.00000000E+00  0.00000000E+00  0.00000000E+00
  0.00000000E+00  0.00000000E+00  0.00000000E+00
  0.00000000E+00  0.00000000E+00  0.00000000E+00
  0.00000000E+00  0.00000000E+00  0.00000000E+00
  0.00000000E+00  0.00000000E+00  0.00000000E+00
  0.00000000E+00  0.00000000E+00  0.00000000E+00
  0.00000000E+00  0.00000000E+00  0.00000000E+00
  0.00000000E+00  0.00000000E+00  0.00000000E+00
  0.00000000E+00  0.00000000E+00  0.00000000E+00
  0.00000000E+00  0.00000000E+00  0.00000000E+00
  0.00000000E+00  0.00000000E+00  0.00000000E+00
  0.00000000E+00  0.00000000E+00  0.00000000E+00
  0.00000000E+00  0.00000000E+00  0.00000000E+00
  0.00000000E+00  0.00000000E+00  0.00000000E+00
  0.00000000E+00  0.00000000E+00  0.00000000E+00
  0.00000000E+00  0.00000000E+00  0.00000000E+00
  0.00000000E+00  0.00000000E+00  0.00000000E+00
  0.00000000E+00  0.00000000E+00  0.00000000E+00
  0.00000000E+00  0.00000000E+00  0.00000000E+00
  0.00000000E+00  0.00000000E+00  0.00000000E+00
  0.00000000E+00  0.00000000E+00  0.00000000E+00
  0.00000000E+00  0.00000000E+00  0.00000000E+00
  0.00000000E+00  0.00000000E+00  0.00000000E+00
  0.00000000E+00  0.00000000E+00  0.00000000E+00
  0.00000000E+00  0.00000000E+00  0.00000000E+00
  0.00000000E+00  0.00000000E+00  0.00000000E+00
  0.00000000E+00  0.00000000E+00  0.00000000E+00
  0.00000000E+00  0.00000000E+00  0.00000000E+00
  0.00000000E+00  0.00000000E+00  0.00000000E+00
  0.00000000E+00  0.00000000E+00  0.00000000E+00
  0.00000000E+00  0.00000000E+00  0.00000000E+00
  0.00000000E+00  0.00000000E+00  0.00000000E+00
  0.00000000E+00  0.00000000E+00  0.00000000E+00
  0.00000000E+00  0.00000000E+00  0.00000000E+00
  0.00000000E+00  0.00000000E+00  0.00000000E+00
  0.00000000E+00  0.00000000E+00  0.00000000E+00
  0.00000000E+00  0.00000000E+00  0.00000000E+00
  0.00000000E+00  0.00000000E+00  0.00000000E+00
  0.00000000E+00  0.00000000E+00  0.00000000E+00
  0.00000000E+00  0.00000000E+00  0.00000000E+00
  0.00000000E+00  0.00000000E+00  0.00000000E+00
  0.00000000E+00  0.00000000E+00  0.00000000E+00
  0.00000000E+00  0.00000000E+00  0.00000000E+00
  0.00000000E+00  0.00000000E+00  0.00000000E+00
  0.00000000E+00  0.00000000E+00  0.00000000E+00
  0.00000000E+00  0.00000000E+00  0.00000000E+00
  0.00000000E+00  0.00000000E+00  0.00000000E+00
  0.00000000E+00  0.00000000E+00  0.00000000E+00
  0.00000000E+00  0.00000000E+00  0.00000000E+00
  0.00000000E+00  0.00000000E+00  0.00000000E+00
  0.00000000E+00  0.00000000E+00  0.00000000E+00
  0.00000000E+00  0.00000000E+00  0.00000000E+00
  0.00000000E+00  0.00000000E+00  0.00000000E+00
  0.00000000E+00  0.00000000E+00  0.00000000E+00
  0.00000000E+00  0.00000000E+00  0.00000000E+00
  0.00000000E+00  0.00000000E+00  0.00000000E+00
  0.00000000E+00  0.00000000E+00  0.00000000E+00
  0.00000000E+00  0.00000000E+00  0.00000000E+00
  0.00000000E+00  0.00000000E+00  0.00000000E+00
  0.00000000E+00  0.00000000E+00  0.00000000E+00
  0.00000000E+00  0.00000000E+00  0.00000000E+00
  0.00000000E+00  0.00000000E+00  0.00000000E+00
