FeNiCoMn_SQSbcc64_12_Fe28               
   3.00000000000000     
    -2.3649969301285085   -1.4165484417054044    1.4377436467160944
     1.8951668064420588    1.8860545441274623    1.9195934516156792
    -1.8918057406975441    1.8842838795122345   -1.9211787025827056
   Fe   Ni   Co   Mn
    28    12    12    12
Direct
  0.7496341500466748  0.0027063210516686  0.8151420310058869
  0.7574081323686447  0.5078393791874576  0.8155570295668034
  0.7461104128719952  0.7501040619844217  0.8138184630681471
  0.7480194258557823  0.0003573815026409  0.5608712676154833
  0.7513611693079817  0.2475846056083686  0.5576492118584829
  0.7523178693086381  0.5001137382581345  0.3135052559495188
  0.7552675078720373  0.5042748664013704  0.0628107912564774
  0.5051590221016004  0.5051401726395992  0.8733898989173955
  0.4997984392416155  0.7491738406364851  0.8753146085647954
  0.5031640046797279  0.5063133091344015  0.6216560072068827
  0.4986349015619016  0.7523363102016943  0.6269483692793367
  0.4990184178405422  0.2515521525233901  0.3801260343069310
  0.5039562752323127  0.5030759082726368  0.3724040739631309
  0.4993003755904230  0.9973263685396326  0.1262977319190892
  0.4987368384523510  0.7511947612337589  0.1251806571713885
  0.2503856319382753  0.0006571774654273  0.9353513006834164
  0.2476024966554792  0.2477343765041792  0.9333722962546012
  0.2550891164859955  0.4983547881262945  0.9357143889700640
  0.2472076401377417  0.7486671612861738  0.9356476042600845
  0.2416052497173692  0.9904186663612280  0.6875107783409874
  0.2515131944218491  0.7531210891135832  0.1904764543333528
  0.0011452428178904  0.0035460238969914  0.7546494832628368
  0.0005256864183707  0.2507888311852404  0.7524791978780976
  0.9998000838209777  0.4950766109185790  0.7482718385913005
  0.0057327282863705  0.4959917675996843  0.5031596900013391
  0.0021931781409052  0.5006743854284235  0.2526859281584911
  0.0020509308386645  0.7477198855719773  0.2516137362773453
  0.0018982008731880  0.2541261183037054  0.9982017432444600
  0.7499883737239236  0.2506021340265200  0.8063798122814911
  0.7494021045970176  0.2510459928185013  0.3124299155367302
  0.7523213008737523  0.2536580594727140  0.0607753545343600
  0.4964456330969350  0.9959549048980688  0.8742818040832790
  0.5014591377297264  0.4985930382445337  0.1226474146234888
  0.2511252293922721  0.4972338769799177  0.6856617985487873
  0.2454768270776000  0.0019531100605418  0.4367408807697228
  0.2556594356143447  0.5046314476529891  0.4331820880151500
  0.9935032953658137  0.9894350426092063  0.5065965196459412
  0.9970458960510010  0.2384327354255327  0.4978511862881176
  0.0009297802218851  0.0001960028548271  0.2618421215634438
  0.0069804566131118  0.5033123642689075  0.0014014396760114
  0.7507536263654067  0.4958873796201850  0.5613874440640275
  0.7428767623657790  0.9928339815020031  0.3116513554321064
  0.7449030052146726  0.9997146336258891  0.0636234509278164
  0.7465701335058690  0.7493742982320477  0.0620364812444765
  0.5003178714787919  0.0032716706161355  0.3732067348163330
  0.4977430907067433  0.7481895652739912  0.3766038404611824
  0.2464115547640846  0.7471575016863815  0.6828383842032965
  0.2588828782077533  0.2608306969858994  0.4408083404273798
  0.2489514856980075  0.7501842679404684  0.4346913355689506
  0.2446230578886354  0.5059166194423044  0.1814013704975496
  0.9991406718950435  0.7415005109252729  0.4982117436147104
  0.0007867433163769  0.7533891791068782  0.0042145969048960
  0.7534487469293736  0.7505547019402892  0.5661659463918901
  0.7482331645171748  0.7510598551553515  0.3104958839264504
  0.5002462754773900  0.2495640035057889  0.8728352365783062
  0.4940437681881779  0.0020001555596348  0.6210578515190860
  0.5033863970827172  0.2552626320546016  0.6353376094474731
  0.4990305388989914  0.2466650397480542  0.1264707409858059
  0.2496836713752001  0.2449660877583493  0.6778046715775182
  0.2474363422414425  0.0057730814687356  0.1887994461152214
  0.2512397857734486  0.2496751592218439  0.1797907283263182
  0.9986839807165730  0.7489375767302762  0.7521941865412364
  0.0012762090564892  0.2468191788230281  0.2522467519070472
  0.9963564450931853  0.9994534548271679  0.0065296610482700
 
  0.00000000E+00  0.00000000E+00  0.00000000E+00
  0.00000000E+00  0.00000000E+00  0.00000000E+00
  0.00000000E+00  0.00000000E+00  0.00000000E+00
  0.00000000E+00  0.00000000E+00  0.00000000E+00
  0.00000000E+00  0.00000000E+00  0.00000000E+00
  0.00000000E+00  0.00000000E+00  0.00000000E+00
  0.00000000E+00  0.00000000E+00  0.00000000E+00
  0.00000000E+00  0.00000000E+00  0.00000000E+00
  0.00000000E+00  0.00000000E+00  0.00000000E+00
  0.00000000E+00  0.00000000E+00  0.00000000E+00
  0.00000000E+00  0.00000000E+00  0.00000000E+00
  0.00000000E+00  0.00000000E+00  0.00000000E+00
  0.00000000E+00  0.00000000E+00  0.00000000E+00
  0.00000000E+00  0.00000000E+00  0.00000000E+00
  0.00000000E+00  0.00000000E+00  0.00000000E+00
  0.00000000E+00  0.00000000E+00  0.00000000E+00
  0.00000000E+00  0.00000000E+00  0.00000000E+00
  0.00000000E+00  0.00000000E+00  0.00000000E+00
  0.00000000E+00  0.00000000E+00  0.00000000E+00
  0.00000000E+00  0.00000000E+00  0.00000000E+00
  0.00000000E+00  0.00000000E+00  0.00000000E+00
  0.00000000E+00  0.00000000E+00  0.00000000E+00
  0.00000000E+00  0.00000000E+00  0.00000000E+00
  0.00000000E+00  0.00000000E+00  0.00000000E+00
  0.00000000E+00  0.00000000E+00  0.00000000E+00
  0.00000000E+00  0.00000000E+00  0.00000000E+00
  0.00000000E+00  0.00000000E+00  0.00000000E+00
  0.00000000E+00  0.00000000E+00  0.00000000E+00
  0.00000000E+00  0.00000000E+00  0.00000000E+00
  0.00000000E+00  0.00000000E+00  0.00000000E+00
  0.00000000E+00  0.00000000E+00  0.00000000E+00
  0.00000000E+00  0.00000000E+00  0.00000000E+00
  0.00000000E+00  0.00000000E+00  0.00000000E+00
  0.00000000E+00  0.00000000E+00  0.00000000E+00
  0.00000000E+00  0.00000000E+00  0.00000000E+00
  0.00000000E+00  0.00000000E+00  0.00000000E+00
  0.00000000E+00  0.00000000E+00  0.00000000E+00
  0.00000000E+00  0.00000000E+00  0.00000000E+00
  0.00000000E+00  0.00000000E+00  0.00000000E+00
  0.00000000E+00  0.00000000E+00  0.00000000E+00
  0.00000000E+00  0.00000000E+00  0.00000000E+00
  0.00000000E+00  0.00000000E+00  0.00000000E+00
  0.00000000E+00  0.00000000E+00  0.00000000E+00
  0.00000000E+00  0.00000000E+00  0.00000000E+00
  0.00000000E+00  0.00000000E+00  0.00000000E+00
  0.00000000E+00  0.00000000E+00  0.00000000E+00
  0.00000000E+00  0.00000000E+00  0.00000000E+00
  0.00000000E+00  0.00000000E+00  0.00000000E+00
  0.00000000E+00  0.00000000E+00  0.00000000E+00
  0.00000000E+00  0.00000000E+00  0.00000000E+00
  0.00000000E+00  0.00000000E+00  0.00000000E+00
  0.00000000E+00  0.00000000E+00  0.00000000E+00
  0.00000000E+00  0.00000000E+00  0.00000000E+00
  0.00000000E+00  0.00000000E+00  0.00000000E+00
  0.00000000E+00  0.00000000E+00  0.00000000E+00
  0.00000000E+00  0.00000000E+00  0.00000000E+00
  0.00000000E+00  0.00000000E+00  0.00000000E+00
  0.00000000E+00  0.00000000E+00  0.00000000E+00
  0.00000000E+00  0.00000000E+00  0.00000000E+00
  0.00000000E+00  0.00000000E+00  0.00000000E+00
  0.00000000E+00  0.00000000E+00  0.00000000E+00
  0.00000000E+00  0.00000000E+00  0.00000000E+00
  0.00000000E+00  0.00000000E+00  0.00000000E+00
  0.00000000E+00  0.00000000E+00  0.00000000E+00
