FeNiCoPd_SQSfcc64_12_Co28               
   3.80000000000000     
    -1.9146611225451011    1.4297217616288289    0.4770957898255757
     1.9161237050762321    1.4314727767015500    0.4776667228813845
    -0.0001360836979913    0.4777297887933698   -2.3895170364004854
   Fe   Ni   Co   Pd
    12    12    28    12
Direct
  0.9768457935334748  0.7192078126093326  0.9356246699441676
  0.8159496456833110  0.3066431161138700  0.6268864971831106
  0.8792052158908564  0.8814773680332105  0.7500659174701650
  0.3685476344578020  0.3679299249816667  0.7583857660579618
  0.3982831865778748  0.6532560301286893  0.8127256476330527
  0.6898174540535920  0.1910585591338408  0.3759801366146014
  0.0622543451538087  0.0696543891482476  0.6340540479761640
  0.0944170560088504  0.3504914430284532  0.6982594869119514
  0.2556848887215410  0.2641382446374718  0.5033892257627353
  0.4099236001893115  0.1599070503880702  0.3038955119407988
  0.2798756312090870  0.0284810855796645  0.0515960814672457
  0.0360511322280083  0.2845718460976580  0.0512696664050111
  0.9440684387268687  0.4353831839537540  0.8777866471171604
  0.4659274246974674  0.2143943892738014  0.9425178921841463
  0.7222199219542363  0.9707246452705121  0.9344994586892108
  0.7874324727651751  0.0339647728561668  0.5620018968741760
  0.2193035718925418  0.4729728831384528  0.9385358455574430
  0.9053776663515040  0.6585450124483864  0.3244487042955296
  0.9312670565845219  0.9348337179244582  0.3845953934904923
  0.5568353379662310  0.0646446573406482  0.1265325197707101
  0.5893710926416510  0.3402270351826641  0.1858899234884626
  0.0317670915764561  0.7810628781048712  0.5638248701916284
  0.1650891137399754  0.4153517762349196  0.3144599653022192
  0.0740301902914281  0.5630180117777026  0.1228182088543473
  0.9022203347282962  0.1563971680076279  0.8146539085863111
  0.6265350138523765  0.1236150297088623  0.7553534037575362
  0.6977864026023045  0.6958182048649595  0.8806999119351361
  0.9736112658638103  0.2227318659276559  0.4491959612617684
  0.1874373973230226  0.1859513957237479  0.8776158529764481
  0.3480905637600907  0.0963644482651712  0.6985202632439411
  0.4292811193427811  0.9394853285373018  0.8725944996979275
  0.5271097267113725  0.2787678412988688  0.5557834819242452
  0.7110537376991677  0.4645199317239526  0.4299963622106987
  0.7471477480836248  0.7505430120045582  0.4888199589641651
  0.1291248609068208  0.6277583139879233  0.7481659774395444
  0.1580742887516515  0.9041094491827301  0.8090503066305420
  0.2749023075271767  0.5359515132547273  0.5596622622224133
  0.3036236703000006  0.8058580868503481  0.6299227840637831
  0.4351417884137778  0.4348686748503472  0.3644104106419639
  0.4595884248125043  0.7111503914864854  0.4265109024613223
  0.6213121304560867  0.6210943073104479  0.2571985945546316
  0.6551385218493064  0.8958560474094182  0.3149268442372070
  0.7476563287779118  0.2412261018698479  0.9941189263006635
  0.8103420198218180  0.8127287837651652  0.1246589382888826
  0.0107515586595700  0.4968503046590702  0.5043605446809873
  0.1885466931502344  0.6823723035350059  0.3770933214142719
  0.3179969571445899  0.3217901537857351  0.1169873185042438
  0.3423612025943761  0.5916207931330488  0.1861457754044735
  0.3748483969376659  0.8695050646317183  0.2478107910692034
  0.4932716597259910  0.4974104459257534  0.0025370314965964
  0.9970401494691522  0.9965307136891730  0.9859987349633054
  0.2485298178676321  0.7481950533701223  0.9945508349059010
  0.6517330069914633  0.3992516242551772  0.8144132614270684
  0.8479687083830164  0.5948925802387555  0.6826999739070505
  0.5037147700562009  0.0022814811076519  0.4963280777210348
  0.5515588150213921  0.5558178508502111  0.6160386374672563
  0.5945098181227908  0.8436497686111868  0.6910753330128913
  0.8378669428078066  0.0870232458063661  0.1859896818636578
  0.8832676509219258  0.3779580747862402  0.2562363044639329
  0.7839702995331220  0.5362694564795977  0.0666512454185331
  0.1294373071454296  0.1365200676181406  0.2471810796968965
  0.2178632670827406  0.9724890618066786  0.4481843721029989
  0.5303559748056228  0.7827215585592391  0.0616629813447110
  0.0896843890998538  0.8401146677344273  0.1861511665533573
 
  0.00000000E+00  0.00000000E+00  0.00000000E+00
  0.00000000E+00  0.00000000E+00  0.00000000E+00
  0.00000000E+00  0.00000000E+00  0.00000000E+00
  0.00000000E+00  0.00000000E+00  0.00000000E+00
  0.00000000E+00  0.00000000E+00  0.00000000E+00
  0.00000000E+00  0.00000000E+00  0.00000000E+00
  0.00000000E+00  0.00000000E+00  0.00000000E+00
  0.00000000E+00  0.00000000E+00  0.00000000E+00
  0.00000000E+00  0.00000000E+00  0.00000000E+00
  0.00000000E+00  0.00000000E+00  0.00000000E+00
  0.00000000E+00  0.00000000E+00  0.00000000E+00
  0.00000000E+00  0.00000000E+00  0.00000000E+00
  0.00000000E+00  0.00000000E+00  0.00000000E+00
  0.00000000E+00  0.00000000E+00  0.00000000E+00
  0.00000000E+00  0.00000000E+00  0.00000000E+00
  0.00000000E+00  0.00000000E+00  0.00000000E+00
  0.00000000E+00  0.00000000E+00  0.00000000E+00
  0.00000000E+00  0.00000000E+00  0.00000000E+00
  0.00000000E+00  0.00000000E+00  0.00000000E+00
  0.00000000E+00  0.00000000E+00  0.00000000E+00
  0.00000000E+00  0.00000000E+00  0.00000000E+00
  0.00000000E+00  0.00000000E+00  0.00000000E+00
  0.00000000E+00  0.00000000E+00  0.00000000E+00
  0.00000000E+00  0.00000000E+00  0.00000000E+00
  0.00000000E+00  0.00000000E+00  0.00000000E+00
  0.00000000E+00  0.00000000E+00  0.00000000E+00
  0.00000000E+00  0.00000000E+00  0.00000000E+00
  0.00000000E+00  0.00000000E+00  0.00000000E+00
  0.00000000E+00  0.00000000E+00  0.00000000E+00
  0.00000000E+00  0.00000000E+00  0.00000000E+00
  0.00000000E+00  0.00000000E+00  0.00000000E+00
  0.00000000E+00  0.00000000E+00  0.00000000E+00
  0.00000000E+00  0.00000000E+00  0.00000000E+00
  0.00000000E+00  0.00000000E+00  0.00000000E+00
  0.00000000E+00  0.00000000E+00  0.00000000E+00
  0.00000000E+00  0.00000000E+00  0.00000000E+00
  0.00000000E+00  0.00000000E+00  0.00000000E+00
  0.00000000E+00  0.00000000E+00  0.00000000E+00
  0.00000000E+00  0.00000000E+00  0.00000000E+00
  0.00000000E+00  0.00000000E+00  0.00000000E+00
  0.00000000E+00  0.00000000E+00  0.00000000E+00
  0.00000000E+00  0.00000000E+00  0.00000000E+00
  0.00000000E+00  0.00000000E+00  0.00000000E+00
  0.00000000E+00  0.00000000E+00  0.00000000E+00
  0.00000000E+00  0.00000000E+00  0.00000000E+00
  0.00000000E+00  0.00000000E+00  0.00000000E+00
  0.00000000E+00  0.00000000E+00  0.00000000E+00
  0.00000000E+00  0.00000000E+00  0.00000000E+00
  0.00000000E+00  0.00000000E+00  0.00000000E+00
  0.00000000E+00  0.00000000E+00  0.00000000E+00
  0.00000000E+00  0.00000000E+00  0.00000000E+00
  0.00000000E+00  0.00000000E+00  0.00000000E+00
  0.00000000E+00  0.00000000E+00  0.00000000E+00
  0.00000000E+00  0.00000000E+00  0.00000000E+00
  0.00000000E+00  0.00000000E+00  0.00000000E+00
  0.00000000E+00  0.00000000E+00  0.00000000E+00
  0.00000000E+00  0.00000000E+00  0.00000000E+00
  0.00000000E+00  0.00000000E+00  0.00000000E+00
  0.00000000E+00  0.00000000E+00  0.00000000E+00
  0.00000000E+00  0.00000000E+00  0.00000000E+00
  0.00000000E+00  0.00000000E+00  0.00000000E+00
  0.00000000E+00  0.00000000E+00  0.00000000E+00
  0.00000000E+00  0.00000000E+00  0.00000000E+00
  0.00000000E+00  0.00000000E+00  0.00000000E+00
