FeNiCoMn_SQSfcc64_14_Mn22               
   3.80000000000000     
    -1.8590298091501574    1.3950999563709059    0.4617544554950344
     1.8645516198123095    1.4006980632842303    0.4670619480787750
    -0.0026099823577573    0.4685613648225344   -2.3298506734034290
   Fe   Ni   Co   Mn
    14    14    14    22
Direct
  0.9055794049513433  0.1457739690551190  0.8090224540239903
  0.7190808974022527  0.9701508777202613  0.9432507187722525
  0.4392345037967749  0.9411140512855630  0.8754255725935135
  0.4990813155656653  0.0036092276679202  0.5005190077506182
  0.5649011589633943  0.5598654813695157  0.6269646230204591
  0.7174912504984730  0.4643876503470662  0.4399484839801211
  0.8983459427402639  0.6586082087808418  0.3149592900544129
  0.4083630814395720  0.1532324084998652  0.3090147350272838
  0.5643362578474405  0.0619249316232770  0.1268527670567667
  0.6205166494399361  0.6252489320438133  0.2570478773846759
  0.6591968900804877  0.9052508471076298  0.3136285221929033
  0.9996397809491047  0.4971826399754573  0.4993449227805190
  0.0294871250536666  0.7815076471913259  0.5604965365237397
  0.3407025581367212  0.5909659434670252  0.1921877712089929
  0.4700672107395939  0.2216126314251480  0.9392950181618843
  0.9691757967156688  0.2177110674957790  0.4373356302534520
  0.3449182413334010  0.0940698398152152  0.6905066655536991
  0.3749101201432724  0.3748381680957018  0.7493867857283545
  0.6894867152419262  0.1877520177168679  0.3750000688711949
  0.8764957978063546  0.3742410199030758  0.2488002834432945
  0.0945186381732128  0.3418342466265263  0.6870105960197723
  0.1266056244990240  0.6237367991694593  0.7481690045654373
  0.3098217481115497  0.8152408648019729  0.6268927332351850
  0.7792496503702020  0.5341791014977099  0.0624012821697479
  0.1562932988109290  0.4040430667108417  0.3138562118831403
  0.3108489090576304  0.3125157337681581  0.1236898514503547
  0.3795880482721855  0.8749659623255767  0.2485307504077748
  0.5332108021703109  0.7810213214993997  0.0625548441685567
  0.6595246045885703  0.4067579052255189  0.8108282022362141
  0.6881288360788093  0.6893423234873916  0.8742685015408768
  0.7827116777437026  0.0312387692778829  0.5618442075233459
  0.8097841230325482  0.3085256036849134  0.6265249618319783
  0.8687822126772460  0.8720199017882138  0.7489753215344825
  0.1890415622898544  0.1928133133656847  0.8764801518537776
  0.2176381579893404  0.4691930634860998  0.9351559737278741
  0.4075624820883159  0.6590266587214157  0.8112952128623199
  0.5380488814990522  0.2827248241810860  0.5666335418211605
  0.7482958535040829  0.7498959655781487  0.4992361222633873
  0.0589334511797768  0.0563072546797476  0.6265616328588201
  0.2210817740605671  0.9688050145588434  0.4368020883370101
  0.2827918304819154  0.0313130588560378  0.0573961436235363
  0.0301039853476549  0.2794876417311109  0.0580793523600160
  0.9389526825184467  0.4362014781686822  0.8736052525676952
  0.9653032388846445  0.7108037171223708  0.9305238645059876
  0.6286714034556146  0.1313255462204685  0.7600303132437427
  0.8410381244784937  0.5974615258370168  0.6885448330917371
  0.5955152491408635  0.8475098201131369  0.6874297260433614
  0.8421250370082850  0.0964346701509867  0.1848090279746734
  0.9372371897812288  0.9388766880379329  0.3777289512584034
  0.1456710330865735  0.9049122169306651  0.8133395198079695
  0.2507215990300715  0.2444605099514849  0.5025062612449943
  0.2869816257367566  0.5385294325195810  0.5635881725508993
  0.4354725697260027  0.4313179882416283  0.3741071460571760
  0.4678475391109939  0.7233531095241963  0.4407113521887927
  0.5971867862837540  0.3478120763191584  0.1864351113903519
  0.7519155052939632  0.2490376368785697  0.9959872760958958
  0.8203547099835021  0.8141020091857039  0.1226103742716239
  0.1178912919416207  0.1168297431590280  0.2416215985557533
  0.1869551924018302  0.6950680635937448  0.3729903254423048
  0.4988260872933749  0.5062686255876164  0.9941094756306212
 -0.0021606790604238  0.0051644405944167  0.9991155789820162
  0.0582481769628016  0.5611649925762684  0.1294938494779393
  0.1024844873781349  0.8381548322086541  0.1886687332741686
  0.2491842986916955  0.7511749214705301 -0.0001311663130071
 
  0.00000000E+00  0.00000000E+00  0.00000000E+00
  0.00000000E+00  0.00000000E+00  0.00000000E+00
  0.00000000E+00  0.00000000E+00  0.00000000E+00
  0.00000000E+00  0.00000000E+00  0.00000000E+00
  0.00000000E+00  0.00000000E+00  0.00000000E+00
  0.00000000E+00  0.00000000E+00  0.00000000E+00
  0.00000000E+00  0.00000000E+00  0.00000000E+00
  0.00000000E+00  0.00000000E+00  0.00000000E+00
  0.00000000E+00  0.00000000E+00  0.00000000E+00
  0.00000000E+00  0.00000000E+00  0.00000000E+00
  0.00000000E+00  0.00000000E+00  0.00000000E+00
  0.00000000E+00  0.00000000E+00  0.00000000E+00
  0.00000000E+00  0.00000000E+00  0.00000000E+00
  0.00000000E+00  0.00000000E+00  0.00000000E+00
  0.00000000E+00  0.00000000E+00  0.00000000E+00
  0.00000000E+00  0.00000000E+00  0.00000000E+00
  0.00000000E+00  0.00000000E+00  0.00000000E+00
  0.00000000E+00  0.00000000E+00  0.00000000E+00
  0.00000000E+00  0.00000000E+00  0.00000000E+00
  0.00000000E+00  0.00000000E+00  0.00000000E+00
  0.00000000E+00  0.00000000E+00  0.00000000E+00
  0.00000000E+00  0.00000000E+00  0.00000000E+00
  0.00000000E+00  0.00000000E+00  0.00000000E+00
  0.00000000E+00  0.00000000E+00  0.00000000E+00
  0.00000000E+00  0.00000000E+00  0.00000000E+00
  0.00000000E+00  0.00000000E+00  0.00000000E+00
  0.00000000E+00  0.00000000E+00  0.00000000E+00
  0.00000000E+00  0.00000000E+00  0.00000000E+00
  0.00000000E+00  0.00000000E+00  0.00000000E+00
  0.00000000E+00  0.00000000E+00  0.00000000E+00
  0.00000000E+00  0.00000000E+00  0.00000000E+00
  0.00000000E+00  0.00000000E+00  0.00000000E+00
  0.00000000E+00  0.00000000E+00  0.00000000E+00
  0.00000000E+00  0.00000000E+00  0.00000000E+00
  0.00000000E+00  0.00000000E+00  0.00000000E+00
  0.00000000E+00  0.00000000E+00  0.00000000E+00
  0.00000000E+00  0.00000000E+00  0.00000000E+00
  0.00000000E+00  0.00000000E+00  0.00000000E+00
  0.00000000E+00  0.00000000E+00  0.00000000E+00
  0.00000000E+00  0.00000000E+00  0.00000000E+00
  0.00000000E+00  0.00000000E+00  0.00000000E+00
  0.00000000E+00  0.00000000E+00  0.00000000E+00
  0.00000000E+00  0.00000000E+00  0.00000000E+00
  0.00000000E+00  0.00000000E+00  0.00000000E+00
  0.00000000E+00  0.00000000E+00  0.00000000E+00
  0.00000000E+00  0.00000000E+00  0.00000000E+00
  0.00000000E+00  0.00000000E+00  0.00000000E+00
  0.00000000E+00  0.00000000E+00  0.00000000E+00
  0.00000000E+00  0.00000000E+00  0.00000000E+00
  0.00000000E+00  0.00000000E+00  0.00000000E+00
  0.00000000E+00  0.00000000E+00  0.00000000E+00
  0.00000000E+00  0.00000000E+00  0.00000000E+00
  0.00000000E+00  0.00000000E+00  0.00000000E+00
  0.00000000E+00  0.00000000E+00  0.00000000E+00
  0.00000000E+00  0.00000000E+00  0.00000000E+00
  0.00000000E+00  0.00000000E+00  0.00000000E+00
  0.00000000E+00  0.00000000E+00  0.00000000E+00
  0.00000000E+00  0.00000000E+00  0.00000000E+00
  0.00000000E+00  0.00000000E+00  0.00000000E+00
  0.00000000E+00  0.00000000E+00  0.00000000E+00
  0.00000000E+00  0.00000000E+00  0.00000000E+00
  0.00000000E+00  0.00000000E+00  0.00000000E+00
  0.00000000E+00  0.00000000E+00  0.00000000E+00
  0.00000000E+00  0.00000000E+00  0.00000000E+00
