FeNiCoCr_sqsfcc64                       
   3.80000000000000     
     0.4663772765665298   -0.9301978906361367   -2.3296960369248887
     2.3327754644215748   -0.9270230710667426   -0.4670270574861249
    -0.9358252879526405   -2.3243526170929631   -0.4670033246723658
   Fe   Ni   Co   Cr
    16    16    16    16
Direct
  0.8631585474932517  0.0752847678199399  0.6256568249083830
  0.8917527267425704  0.1715255201415672  0.3760001459342646
  0.3789741094763576  0.1280773884030833  0.0012489974146449
  0.6128049963221387  0.3290619039825812  0.6189735091116476
  0.6723604932150261  0.5155702696659080  0.1234390763137532
  0.4090958594068401  0.2135341303448260  0.7462651558902652
  0.4351685154371221  0.3142857335605608  0.4969677257036125
  0.2995651521750612  0.3941961564792835  0.1226075209819004
  0.0279272194651040  0.0978197320795337  0.7546602804866199
  0.7634274373724634  0.7963142583356299  0.3790833659622440
  0.5897089878401910  0.7836600390202183  0.2503180471490784
  0.3294492520852509  0.4865390127410345  0.8758327774494961
  0.1559791994416122  0.4663266200358466  0.7462454006996776
  0.0136869697326430  0.5464190329222159  0.3775692161578829
  0.6591094875389689  0.9647963187613511  0.7490054527445473
  0.3070918742484753  0.9400740635197792  0.5032223968455742
  0.9241839298788250  0.2667805241079038  0.1203387449203009
  0.7796210901223486  0.3484375993262247  0.7479313839684030
  0.8757597116211577  0.6235158296875039  0.0011560961918298
  0.5819744886499872  0.2345481004243774  0.8717340071236139
  0.4672957006512885  0.4089657768136972  0.2503673427559140
  0.5013367801984825  0.5007588044247709  0.9986606279164397
  0.2020348281983014  0.1125053923864945  0.8762580738403973
  0.2368669880424031  0.1993227746505089  0.6227983426233584
  0.9677714406302301  0.9073270033222554  0.2517781405550296
  0.7971331354675215  0.8891008225348197  0.1258141682634813
  0.6271108884394547  0.8729669817199239  0.0003398461138129
  0.2473785850212521  0.7504893810850862  0.0032056240077826
  0.0456517032120658  0.6412054566670229  0.1278145001626408
  0.2803370497186249  0.8460966303780812  0.7550511655877915
  0.0775134689696937  0.7344945124205772  0.8758384449723593
  0.1394057907315063  0.9210553076361099  0.3743739125858345
  0.6901614530663792  0.0580718402184170  0.5014965031371833
  0.7474949017901672  0.2494910511490815  0.9992970019754205
  0.9887874395550743  0.4479230888232325  0.6223586143477901
  0.8068769348533616  0.4426823258042513  0.4999825037499399
  0.8431841234868348  0.5335106252918108  0.2493656384325343
  0.0581649198017637  0.1906711469653467  0.4997894618899004
  0.9103229082554614  0.7166198252819648  0.7478937859348379
  0.9398442172682353  0.8096110381852576  0.4994329906380778
  0.7044845353167134  0.6114243203993910  0.8735721592872522
  0.5304824280368362  0.5982028452696451  0.7526197275817762
  0.3868860468367201  0.6734402279091368  0.3747694980068209
  0.4243405198921459  0.7618280208766508  0.1245975045868078
  0.1892108603879409  0.5601842117273910  0.4968952669435320
  0.2183264548353053  0.6555291281168781  0.2501163957587585
  0.8282512864829586  0.9835786455120105  0.8758622938871389
  0.4838416947914104  0.9493991390699649  0.6291313833941184
  0.7170426463571609  0.1569588104856510  0.2520957327180461
  0.5203463727422507  0.0379752788264727  0.3815307449182909
  0.5503908862931767  0.1416961060908893  0.1208120950795992
  0.3391720051146448  0.0265927795427008  0.2455076139754152
  0.1727289838261865  0.0164459297369454  0.1242756738420802
  0.9925479794891473  0.0036612688033771  0.0008293170315570
  0.9505985698971415  0.3607024605196808  0.8714648348528709
  0.6467135769887966  0.4246409624252521  0.3676067084770734
  0.2751071457666152  0.2831830215592466  0.3682794123048955
  0.0816099148168808  0.2872671129656082  0.2534792997398413
  0.1315394476396752  0.3777306028553954  0.0009113787286812
  0.7402476258156396  0.6985947596182568  0.6284036438899434
  0.5545387565090445  0.6862496223795858  0.5017190831878955
  0.3596403450985041  0.5860030136284763  0.6233267258013402
  0.4460375074247383  0.8656480116802747  0.8858353583280802
  0.1104411040169142  0.8234269328829642  0.6261853322299170
 
  0.00000000E+00  0.00000000E+00  0.00000000E+00
  0.00000000E+00  0.00000000E+00  0.00000000E+00
  0.00000000E+00  0.00000000E+00  0.00000000E+00
  0.00000000E+00  0.00000000E+00  0.00000000E+00
  0.00000000E+00  0.00000000E+00  0.00000000E+00
  0.00000000E+00  0.00000000E+00  0.00000000E+00
  0.00000000E+00  0.00000000E+00  0.00000000E+00
  0.00000000E+00  0.00000000E+00  0.00000000E+00
  0.00000000E+00  0.00000000E+00  0.00000000E+00
  0.00000000E+00  0.00000000E+00  0.00000000E+00
  0.00000000E+00  0.00000000E+00  0.00000000E+00
  0.00000000E+00  0.00000000E+00  0.00000000E+00
  0.00000000E+00  0.00000000E+00  0.00000000E+00
  0.00000000E+00  0.00000000E+00  0.00000000E+00
  0.00000000E+00  0.00000000E+00  0.00000000E+00
  0.00000000E+00  0.00000000E+00  0.00000000E+00
  0.00000000E+00  0.00000000E+00  0.00000000E+00
  0.00000000E+00  0.00000000E+00  0.00000000E+00
  0.00000000E+00  0.00000000E+00  0.00000000E+00
  0.00000000E+00  0.00000000E+00  0.00000000E+00
  0.00000000E+00  0.00000000E+00  0.00000000E+00
  0.00000000E+00  0.00000000E+00  0.00000000E+00
  0.00000000E+00  0.00000000E+00  0.00000000E+00
  0.00000000E+00  0.00000000E+00  0.00000000E+00
  0.00000000E+00  0.00000000E+00  0.00000000E+00
  0.00000000E+00  0.00000000E+00  0.00000000E+00
  0.00000000E+00  0.00000000E+00  0.00000000E+00
  0.00000000E+00  0.00000000E+00  0.00000000E+00
  0.00000000E+00  0.00000000E+00  0.00000000E+00
  0.00000000E+00  0.00000000E+00  0.00000000E+00
  0.00000000E+00  0.00000000E+00  0.00000000E+00
  0.00000000E+00  0.00000000E+00  0.00000000E+00
  0.00000000E+00  0.00000000E+00  0.00000000E+00
  0.00000000E+00  0.00000000E+00  0.00000000E+00
  0.00000000E+00  0.00000000E+00  0.00000000E+00
  0.00000000E+00  0.00000000E+00  0.00000000E+00
  0.00000000E+00  0.00000000E+00  0.00000000E+00
  0.00000000E+00  0.00000000E+00  0.00000000E+00
  0.00000000E+00  0.00000000E+00  0.00000000E+00
  0.00000000E+00  0.00000000E+00  0.00000000E+00
  0.00000000E+00  0.00000000E+00  0.00000000E+00
  0.00000000E+00  0.00000000E+00  0.00000000E+00
  0.00000000E+00  0.00000000E+00  0.00000000E+00
  0.00000000E+00  0.00000000E+00  0.00000000E+00
  0.00000000E+00  0.00000000E+00  0.00000000E+00
  0.00000000E+00  0.00000000E+00  0.00000000E+00
  0.00000000E+00  0.00000000E+00  0.00000000E+00
  0.00000000E+00  0.00000000E+00  0.00000000E+00
  0.00000000E+00  0.00000000E+00  0.00000000E+00
  0.00000000E+00  0.00000000E+00  0.00000000E+00
  0.00000000E+00  0.00000000E+00  0.00000000E+00
  0.00000000E+00  0.00000000E+00  0.00000000E+00
  0.00000000E+00  0.00000000E+00  0.00000000E+00
  0.00000000E+00  0.00000000E+00  0.00000000E+00
  0.00000000E+00  0.00000000E+00  0.00000000E+00
  0.00000000E+00  0.00000000E+00  0.00000000E+00
  0.00000000E+00  0.00000000E+00  0.00000000E+00
  0.00000000E+00  0.00000000E+00  0.00000000E+00
  0.00000000E+00  0.00000000E+00  0.00000000E+00
  0.00000000E+00  0.00000000E+00  0.00000000E+00
  0.00000000E+00  0.00000000E+00  0.00000000E+00
  0.00000000E+00  0.00000000E+00  0.00000000E+00
  0.00000000E+00  0.00000000E+00  0.00000000E+00
  0.00000000E+00  0.00000000E+00  0.00000000E+00
