FeNiCoPd_SQSfcc14_Pd22                  
   1.00000000000000     
    -7.4080516656894204    5.5207846539572261    1.8640608919987196
     7.4283718682945521    5.5420381407203898    1.8815209931414467
    -0.0081063395720472    1.8366791281019901   -9.3428467546185257
   Fe   Ni   Co   Pd
    14    14    14    22
Direct
  0.9110183609933690  0.1577275788743698  0.7971968860543954
  0.7169626594404368  0.9605505452517000  0.9359873326055214
  0.4402807555651080  0.9386711345361127  0.8724035176580953
  0.4954282803247562  0.0041539539532200  0.5049726462288397
  0.5588547910806015  0.5559279068581848  0.6277536823002874
  0.7145585330393430  0.4570138902307208  0.4378234386557053
  0.8940717921432654  0.6477720578654912  0.3180731661532844
  0.4092161556461178  0.1514520959430193  0.3151419722157630
  0.5552686136271769  0.0563765469794490  0.1181035247497095
  0.6248255818901685  0.6220288875264803  0.2502325340902321
  0.6561358050637379  0.9110458455344039  0.3185816636817957
  0.9981867471961728  0.4875382850477973  0.5043395124577285
  0.0336775383501225  0.7869951968928646  0.5709246164680066
  0.3402066543322183  0.5909162532609218  0.1854671732137966
  0.4603918133520936  0.2126160090103086  0.9325939129931742
  0.9632567770800873  0.2231249325879929  0.4498795874419497
  0.3459084780451307  0.0943369959082021  0.6873516705635073
  0.3779620693802686  0.3701683574497313  0.7528237528755959
  0.6812020086803667  0.1827473853125266  0.3835122460599849
  0.8752702616018997  0.3778079446180778  0.2650111283237629
  0.0928870051889826  0.3399927732827932  0.6895983603756668
  0.1284264404622966  0.6257678305679233  0.7470845156490554
  0.3147369110307763  0.8180854314782415  0.6321819406411935
  0.7773883834972629  0.5313599709137499  0.0615536574942950
  0.1471134470383841  0.4030865227909432  0.3122322793568605
  0.3088983338791598  0.3115189334856140  0.1148122604495237
  0.3849634096331007  0.8863025746022385  0.2508497360567067
  0.5325816963652650  0.7845092932240817  0.0640609796486477
  0.6494172112561035  0.4069689260249262  0.8041272844277094
  0.6781360260204977  0.6780329485947953  0.8757277448927461
  0.7847608953357482  0.0354578182755390  0.5618069841708332
  0.8063277954111026  0.3113947926844804  0.6139454429745839
  0.8752591736216625  0.8817319299518230  0.7375021662326934
  0.1945958752448951  0.1994229612582123  0.8731784232531693
  0.2188741744227562  0.4602878412233036  0.9266854886408965
  0.4114389165246612  0.6549137908713718  0.8140598877278959
  0.5355448850876758  0.2864240899723776  0.5673057659651031
  0.7502559446897986  0.7482333970060521  0.4916250906260295
  0.0586951315307392  0.0684661510460586  0.6329162084546829
  0.2327789036878467  0.9698261812109699  0.4464001649611805
  0.2998462289379136  0.0394114703374721  0.0650830542879815
  0.0466624424860833  0.2868481431797951  0.0510647128563361
  0.9391691596971466  0.4332072314447036  0.8622187716645042
  0.9628292548064873  0.7206446011613226  0.9313398540692066
  0.6253466660026206  0.1287869040109577  0.7469494316074514
  0.8367785098220970  0.5956264510564167  0.6764017267162061
  0.5989698251963629  0.8386845448855171  0.6888583461250457
  0.8375018123234511  0.0997078374180301  0.1960921883630913
  0.9431338079190524  0.9389644862630572  0.3875497235495552
  0.1620680666474993  0.9159178490215379  0.8095234421339991
  0.2472957692241843  0.2426484278469472  0.5090545677902357
  0.2802669868055198  0.5323165542949153  0.5733986222678887
  0.4321079092428446  0.4323193255972644  0.3712038971233783
  0.4709704012682114  0.7245988439014374  0.4311417069051542
  0.5953476202545978  0.3365744013402784  0.1881495410518767
  0.7551600889085878  0.2506927101466227  0.9985539754775128
  0.8033488571910322  0.8077640590967771  0.1285102840036079
  0.1342352978940517  0.1354205358566634  0.2490358727658720
  0.1791903565084262  0.6878420364180470  0.3839950512774046
  0.4966254643347708  0.5004246989360689  0.9982850741264054
  0.9983031430106684  0.0126255357842905  0.9921047034626008
  0.0559510354697061  0.5509133169118476  0.1265272856722661
  0.1024681672904038  0.8491689916849198  0.1904486126673447
  0.2606588919971219  0.7481350812980260  0.9986812072444495
 
  0.00000000E+00  0.00000000E+00  0.00000000E+00
  0.00000000E+00  0.00000000E+00  0.00000000E+00
  0.00000000E+00  0.00000000E+00  0.00000000E+00
  0.00000000E+00  0.00000000E+00  0.00000000E+00
  0.00000000E+00  0.00000000E+00  0.00000000E+00
  0.00000000E+00  0.00000000E+00  0.00000000E+00
  0.00000000E+00  0.00000000E+00  0.00000000E+00
  0.00000000E+00  0.00000000E+00  0.00000000E+00
  0.00000000E+00  0.00000000E+00  0.00000000E+00
  0.00000000E+00  0.00000000E+00  0.00000000E+00
  0.00000000E+00  0.00000000E+00  0.00000000E+00
  0.00000000E+00  0.00000000E+00  0.00000000E+00
  0.00000000E+00  0.00000000E+00  0.00000000E+00
  0.00000000E+00  0.00000000E+00  0.00000000E+00
  0.00000000E+00  0.00000000E+00  0.00000000E+00
  0.00000000E+00  0.00000000E+00  0.00000000E+00
  0.00000000E+00  0.00000000E+00  0.00000000E+00
  0.00000000E+00  0.00000000E+00  0.00000000E+00
  0.00000000E+00  0.00000000E+00  0.00000000E+00
  0.00000000E+00  0.00000000E+00  0.00000000E+00
  0.00000000E+00  0.00000000E+00  0.00000000E+00
  0.00000000E+00  0.00000000E+00  0.00000000E+00
  0.00000000E+00  0.00000000E+00  0.00000000E+00
  0.00000000E+00  0.00000000E+00  0.00000000E+00
  0.00000000E+00  0.00000000E+00  0.00000000E+00
  0.00000000E+00  0.00000000E+00  0.00000000E+00
  0.00000000E+00  0.00000000E+00  0.00000000E+00
  0.00000000E+00  0.00000000E+00  0.00000000E+00
  0.00000000E+00  0.00000000E+00  0.00000000E+00
  0.00000000E+00  0.00000000E+00  0.00000000E+00
  0.00000000E+00  0.00000000E+00  0.00000000E+00
  0.00000000E+00  0.00000000E+00  0.00000000E+00
  0.00000000E+00  0.00000000E+00  0.00000000E+00
  0.00000000E+00  0.00000000E+00  0.00000000E+00
  0.00000000E+00  0.00000000E+00  0.00000000E+00
  0.00000000E+00  0.00000000E+00  0.00000000E+00
  0.00000000E+00  0.00000000E+00  0.00000000E+00
  0.00000000E+00  0.00000000E+00  0.00000000E+00
  0.00000000E+00  0.00000000E+00  0.00000000E+00
  0.00000000E+00  0.00000000E+00  0.00000000E+00
  0.00000000E+00  0.00000000E+00  0.00000000E+00
  0.00000000E+00  0.00000000E+00  0.00000000E+00
  0.00000000E+00  0.00000000E+00  0.00000000E+00
  0.00000000E+00  0.00000000E+00  0.00000000E+00
  0.00000000E+00  0.00000000E+00  0.00000000E+00
  0.00000000E+00  0.00000000E+00  0.00000000E+00
  0.00000000E+00  0.00000000E+00  0.00000000E+00
  0.00000000E+00  0.00000000E+00  0.00000000E+00
  0.00000000E+00  0.00000000E+00  0.00000000E+00
  0.00000000E+00  0.00000000E+00  0.00000000E+00
  0.00000000E+00  0.00000000E+00  0.00000000E+00
  0.00000000E+00  0.00000000E+00  0.00000000E+00
  0.00000000E+00  0.00000000E+00  0.00000000E+00
  0.00000000E+00  0.00000000E+00  0.00000000E+00
  0.00000000E+00  0.00000000E+00  0.00000000E+00
  0.00000000E+00  0.00000000E+00  0.00000000E+00
  0.00000000E+00  0.00000000E+00  0.00000000E+00
  0.00000000E+00  0.00000000E+00  0.00000000E+00
  0.00000000E+00  0.00000000E+00  0.00000000E+00
  0.00000000E+00  0.00000000E+00  0.00000000E+00
  0.00000000E+00  0.00000000E+00  0.00000000E+00
  0.00000000E+00  0.00000000E+00  0.00000000E+00
  0.00000000E+00  0.00000000E+00  0.00000000E+00
  0.00000000E+00  0.00000000E+00  0.00000000E+00
