FeNiCrPd_SQSfcc64_14_Pd22               
   4.00000000000000     
    -1.8687456194877476    1.4005730260156968    0.4692588166410887
     1.8704385312211347    1.4026930198303942    0.4695257159186337
     0.0002173844192816    0.4679163715707608   -2.3489374938618264
   Fe   Ni   Cr   Pd
    14    14    14    22
Direct
  0.9149909317458310  0.1678188869162881  0.8126974060050421
  0.7098793283941138  0.9638070830243032  0.9438766619087151
  0.4431832423688628  0.9396846437019801  0.8745387727518423
  0.4932783457607612  0.0024960206761989  0.4977495593538948
  0.5581247455739899  0.5617030109413675  0.6208294637753013
  0.7161076857280583  0.4577560004268604  0.4341774901144316
  0.8906774374395858  0.6406513122974520  0.3202443321848570
  0.4136559611384046  0.1515140343325441  0.3170648069715695
  0.5574287283602398  0.0585183320337518  0.1196858576944173
  0.6228231697933156  0.6215389838004526  0.2480110298985319
  0.6475918506283430  0.9086003563274434  0.3097437344021945
  0.9981169273949750  0.4913206898339624  0.4974711387318847
  0.0318527376923742  0.7797837612313954  0.5680834650240477
  0.3434412014890421  0.5959060123114243  0.1909915960007495
  0.4588876177116175  0.2111616717339142  0.9337503273605210
  0.9677790597408336  0.2220873877869854  0.4431866994876204
  0.3516423168915567  0.0935147708228479  0.6895159487815520
  0.3820525912559311  0.3675059919726528  0.7504805233197569
  0.6819545748706363  0.1834992554096059  0.3820664906370927
  0.8748912218650688  0.3757927345379873  0.2633573902155528
  0.0899747659612542  0.3435611194736113  0.6843150846112327
  0.1237821662995607  0.6262591761623288  0.7426448172674305
  0.3171173240666771  0.8192872999598840  0.6316521058817812
  0.7801614762735725  0.5307348802045353  0.0679129631490858
  0.1499441993935606  0.4056302167438377  0.3129596914172530
  0.3079927354019465  0.3128126250593712  0.1175725220192012
  0.3846992434820130  0.8850788409015310  0.2514434995596495
  0.5320589116312919  0.7863648148714075  0.0655777876719305
  0.6508054659571267  0.4028810236631620  0.8098374118902200
  0.6878056602506172  0.6766726801443107  0.8778242206362757
  0.7814631675509687  0.0340698782229345  0.5592740342906140
  0.8242083066455600  0.3084140552837911  0.6149166575604540
  0.8867414764317280  0.9017925573332360  0.7387351006825702
  0.1959812245995521  0.1966497903423160  0.8619632767278039
  0.2114627875170043  0.4518083339607353  0.9258980541956764
  0.3977282472181522  0.6502301600417343  0.8080824159397544
  0.5325353670903032  0.2851672011001530  0.5628636813808651
  0.7448686964826836  0.7437048498286921  0.4864605303185676
  0.0645845997237452  0.0745192560218160  0.6301708162149184
  0.2290445616382966  0.9673732603464078  0.4478712572604220
  0.2965722957626385  0.0347602843087433  0.0695752170538319
  0.0358940970645219  0.2871891311741555  0.0625584163048644
  0.9368287859625533  0.4384391478737873  0.8655026470211696
  0.9639335233889778  0.7219274534783600  0.9304958432650348
  0.6262512040243464  0.1245754378029630  0.7445393854497210
  0.8359801604104891  0.5969622886639702  0.6736047362981158
  0.6007292077120382  0.8388877721538855  0.6935696642800666
  0.8371783221231524  0.0963293514197878  0.1974376888141910
  0.9399145203780584  0.9365303681249366  0.3868915313039588
  0.1641681917326333  0.9119187296391368  0.8081449202207566
  0.2523225468012749  0.2455224754478282  0.5084931020846887
  0.2780475234880067  0.5310432894628601  0.5715322185866124
  0.4343211926581151  0.4351336920671361  0.3699469063229998
  0.4699717680378001  0.7253541227927144  0.4342726087906403
  0.5937857239494203  0.3366808335053356  0.1876127222664140
  0.7516676361306640  0.2495406206821165  0.9995348423537398
  0.8028074680566127  0.8056739640161377  0.1299260290984196
  0.1354059309325588  0.1349947515894907  0.2526260634926449
  0.1805996109124232  0.6885244514745126  0.3830377306470702
  0.4929937952530103  0.5014525348297232 -0.0017602599558887
  0.0002988850746724  0.0125123269283969  0.9955137421858210
  0.0585621399780495  0.5546068554787672  0.1299139572492527
  0.1003364921576891  0.8480885584957392  0.1907196853098433
  0.2601089185511680  0.7456785988043448  0.0008119782607864
 
  0.00000000E+00  0.00000000E+00  0.00000000E+00
  0.00000000E+00  0.00000000E+00  0.00000000E+00
  0.00000000E+00  0.00000000E+00  0.00000000E+00
  0.00000000E+00  0.00000000E+00  0.00000000E+00
  0.00000000E+00  0.00000000E+00  0.00000000E+00
  0.00000000E+00  0.00000000E+00  0.00000000E+00
  0.00000000E+00  0.00000000E+00  0.00000000E+00
  0.00000000E+00  0.00000000E+00  0.00000000E+00
  0.00000000E+00  0.00000000E+00  0.00000000E+00
  0.00000000E+00  0.00000000E+00  0.00000000E+00
  0.00000000E+00  0.00000000E+00  0.00000000E+00
  0.00000000E+00  0.00000000E+00  0.00000000E+00
  0.00000000E+00  0.00000000E+00  0.00000000E+00
  0.00000000E+00  0.00000000E+00  0.00000000E+00
  0.00000000E+00  0.00000000E+00  0.00000000E+00
  0.00000000E+00  0.00000000E+00  0.00000000E+00
  0.00000000E+00  0.00000000E+00  0.00000000E+00
  0.00000000E+00  0.00000000E+00  0.00000000E+00
  0.00000000E+00  0.00000000E+00  0.00000000E+00
  0.00000000E+00  0.00000000E+00  0.00000000E+00
  0.00000000E+00  0.00000000E+00  0.00000000E+00
  0.00000000E+00  0.00000000E+00  0.00000000E+00
  0.00000000E+00  0.00000000E+00  0.00000000E+00
  0.00000000E+00  0.00000000E+00  0.00000000E+00
  0.00000000E+00  0.00000000E+00  0.00000000E+00
  0.00000000E+00  0.00000000E+00  0.00000000E+00
  0.00000000E+00  0.00000000E+00  0.00000000E+00
  0.00000000E+00  0.00000000E+00  0.00000000E+00
  0.00000000E+00  0.00000000E+00  0.00000000E+00
  0.00000000E+00  0.00000000E+00  0.00000000E+00
  0.00000000E+00  0.00000000E+00  0.00000000E+00
  0.00000000E+00  0.00000000E+00  0.00000000E+00
  0.00000000E+00  0.00000000E+00  0.00000000E+00
  0.00000000E+00  0.00000000E+00  0.00000000E+00
  0.00000000E+00  0.00000000E+00  0.00000000E+00
  0.00000000E+00  0.00000000E+00  0.00000000E+00
  0.00000000E+00  0.00000000E+00  0.00000000E+00
  0.00000000E+00  0.00000000E+00  0.00000000E+00
  0.00000000E+00  0.00000000E+00  0.00000000E+00
  0.00000000E+00  0.00000000E+00  0.00000000E+00
  0.00000000E+00  0.00000000E+00  0.00000000E+00
  0.00000000E+00  0.00000000E+00  0.00000000E+00
  0.00000000E+00  0.00000000E+00  0.00000000E+00
  0.00000000E+00  0.00000000E+00  0.00000000E+00
  0.00000000E+00  0.00000000E+00  0.00000000E+00
  0.00000000E+00  0.00000000E+00  0.00000000E+00
  0.00000000E+00  0.00000000E+00  0.00000000E+00
  0.00000000E+00  0.00000000E+00  0.00000000E+00
  0.00000000E+00  0.00000000E+00  0.00000000E+00
  0.00000000E+00  0.00000000E+00  0.00000000E+00
  0.00000000E+00  0.00000000E+00  0.00000000E+00
  0.00000000E+00  0.00000000E+00  0.00000000E+00
  0.00000000E+00  0.00000000E+00  0.00000000E+00
  0.00000000E+00  0.00000000E+00  0.00000000E+00
  0.00000000E+00  0.00000000E+00  0.00000000E+00
  0.00000000E+00  0.00000000E+00  0.00000000E+00
  0.00000000E+00  0.00000000E+00  0.00000000E+00
  0.00000000E+00  0.00000000E+00  0.00000000E+00
  0.00000000E+00  0.00000000E+00  0.00000000E+00
  0.00000000E+00  0.00000000E+00  0.00000000E+00
  0.00000000E+00  0.00000000E+00  0.00000000E+00
  0.00000000E+00  0.00000000E+00  0.00000000E+00
  0.00000000E+00  0.00000000E+00  0.00000000E+00
  0.00000000E+00  0.00000000E+00  0.00000000E+00
