FeNiCoMn_SQSbcc64_17_Co13               
   2.80000000000000     
    -0.5016820211784345    2.5476837390330096    1.5447422487812101
     2.5190897149991094    0.5114469109136691    1.5450939678824143
     1.5122824456470612    2.5486601688721193   -2.5737166837744461
   Fe   Ni   Co   Mn
    17    17    13    17
Direct
  0.9706681740593708  0.0530283997518628  0.2200658055932876
  0.9860108146321762  0.5294418565109869  0.1118299614070644
  0.8229184737386379  0.8471392827717950  0.2086340215642902
  0.0095189221524691  0.0008383036093320  0.0033031946482354
  0.4996205116977964 -0.0019528709753594  0.4980561057256787
  0.3784805318205509  0.2398888009322024  0.3781145039987449
  0.1976251537867778  0.0925383652690377  0.5802768906221933
  0.4808710276917302  0.5274833995711465  0.6104525029903273
  0.6214504818959127  0.7511147378025258  0.6221814446318940
  0.7720730904321721  0.9704354541684566  0.6346407229533166
  0.4370675691320383  0.1228792237682793  0.9369302579278094
  0.7211030608847240  0.5668995315478645  0.9701045788636666
  0.3107311552267630  0.3736735665766126  0.8128262627538269
  0.1894897905070796  0.6312096668609597  0.6891933024684466
  0.3262842560964776  0.8467841298542684  0.7042665387929705
  0.0163027641509914  0.4681930756020627  0.8963991203370660
  0.1601049965492887  0.6876481908762236  0.9058666717969079
  0.9321645291650051  0.1243457112470989  0.4365278208971158
  0.6692734946809167  0.1624826576518129  0.2908644728157196
  0.6865582565338855  0.6303716950710980  0.1869744347203361
  0.4275004112268604  0.6688200020829932  0.0384804105123316
  0.9029758920931402  0.1848527524324448  0.6595644332510119
  0.6371188249837825  0.2140900819144911  0.5160488480976458
  0.2279093140826104  0.0309296470160693  0.3654564746054066
  0.2451512842016212  0.4853153249743843  0.2563628843214844
  0.3848544222340898  0.7077637068150157  0.2680058189276726
  0.5269202921973933  0.9302426086789272  0.2795401727771246
  0.7303203458393154  0.0272686736671174  0.8584587339959707
  0.0809181964571575  0.3418327709001937  0.4515834415987462
  0.8739685907470929  0.7796631199285434  0.9925882382869182
  0.1740946546385450  0.1619248851761377  0.7937580151366328
  0.4481280130979080  0.5911468287511937  0.8246068739312625
  0.5859912526427845  0.8081235202111429  0.8397804301923680
  0.0342757713847255  0.9360057455090314  0.7851875361892509
  0.8187660337444824  0.3741327674954134  0.3096581475893563
  0.9427917695003496  0.6009475806902473  0.3247018031318412
  0.1423709113488313  0.2197833946068732  0.0167340947012283
  0.2804665574934831  0.4436085744885700  0.0247466588460780
  0.5754006737566024  0.8806131745965864  0.0511957572010862
  0.9164794934621667  0.6620916353638339  0.5469826920244493
  0.6570311474351016  0.6867386142945132  0.4097936102790619
  0.7902605321686749  0.9099646832204425  0.4228289508602807
  0.5986708902287494  0.2856319596217102  0.7368426767616526
  0.3405593603166758  0.3125773075213079  0.5927358982426872
  0.0851592827778200  0.8132300690602801  0.3484920210586906
  0.0635114001782995  0.8750394615160927  0.5628758944650724
  0.2922597151054464  0.9106160658358259  0.9199022371129962
  0.7048667227573197  0.0935629955815173  0.0768919026981764
  0.8461498803273041  0.3124999543513740  0.0960944100628195
  0.4159999909758319  0.1953299744331556  0.1534597930320029
  0.5360832043656114  0.4214980507259646  0.1671370529723344
  0.7844968382401587  0.4297298737598647  0.5297847384529567
  0.5243080660624219  0.4660690461390543  0.3907332021505200
  0.1107190598491636  0.2722301869608097  0.2347650571560193
  0.1339547584886114  0.7411750983305974  0.1326048881921301
  0.2846036068424288  0.9674255718300721  0.1428793963397324
  0.8752813958891094  0.2454838947624375  0.8725437462124355
  0.4726424146670795  0.0639130909877386  0.7159610832783326
  0.7595028512359494  0.4994621702746626  0.7500001889939913
  0.8847519202072630  0.7254422525602831  0.7710458462352857
  0.2114845428119956  0.5601848342696755  0.4694295841992226
  0.3605302910298605  0.7798804055164955  0.4812394540724578
  0.5784569966682516  0.3477762091599456  0.9498628657851641
  0.0439953714031629  0.4109382555187246  0.6711454205592233
 
  0.00000000E+00  0.00000000E+00  0.00000000E+00
  0.00000000E+00  0.00000000E+00  0.00000000E+00
  0.00000000E+00  0.00000000E+00  0.00000000E+00
  0.00000000E+00  0.00000000E+00  0.00000000E+00
  0.00000000E+00  0.00000000E+00  0.00000000E+00
  0.00000000E+00  0.00000000E+00  0.00000000E+00
  0.00000000E+00  0.00000000E+00  0.00000000E+00
  0.00000000E+00  0.00000000E+00  0.00000000E+00
  0.00000000E+00  0.00000000E+00  0.00000000E+00
  0.00000000E+00  0.00000000E+00  0.00000000E+00
  0.00000000E+00  0.00000000E+00  0.00000000E+00
  0.00000000E+00  0.00000000E+00  0.00000000E+00
  0.00000000E+00  0.00000000E+00  0.00000000E+00
  0.00000000E+00  0.00000000E+00  0.00000000E+00
  0.00000000E+00  0.00000000E+00  0.00000000E+00
  0.00000000E+00  0.00000000E+00  0.00000000E+00
  0.00000000E+00  0.00000000E+00  0.00000000E+00
  0.00000000E+00  0.00000000E+00  0.00000000E+00
  0.00000000E+00  0.00000000E+00  0.00000000E+00
  0.00000000E+00  0.00000000E+00  0.00000000E+00
  0.00000000E+00  0.00000000E+00  0.00000000E+00
  0.00000000E+00  0.00000000E+00  0.00000000E+00
  0.00000000E+00  0.00000000E+00  0.00000000E+00
  0.00000000E+00  0.00000000E+00  0.00000000E+00
  0.00000000E+00  0.00000000E+00  0.00000000E+00
  0.00000000E+00  0.00000000E+00  0.00000000E+00
  0.00000000E+00  0.00000000E+00  0.00000000E+00
  0.00000000E+00  0.00000000E+00  0.00000000E+00
  0.00000000E+00  0.00000000E+00  0.00000000E+00
  0.00000000E+00  0.00000000E+00  0.00000000E+00
  0.00000000E+00  0.00000000E+00  0.00000000E+00
  0.00000000E+00  0.00000000E+00  0.00000000E+00
  0.00000000E+00  0.00000000E+00  0.00000000E+00
  0.00000000E+00  0.00000000E+00  0.00000000E+00
  0.00000000E+00  0.00000000E+00  0.00000000E+00
  0.00000000E+00  0.00000000E+00  0.00000000E+00
  0.00000000E+00  0.00000000E+00  0.00000000E+00
  0.00000000E+00  0.00000000E+00  0.00000000E+00
  0.00000000E+00  0.00000000E+00  0.00000000E+00
  0.00000000E+00  0.00000000E+00  0.00000000E+00
  0.00000000E+00  0.00000000E+00  0.00000000E+00
  0.00000000E+00  0.00000000E+00  0.00000000E+00
  0.00000000E+00  0.00000000E+00  0.00000000E+00
  0.00000000E+00  0.00000000E+00  0.00000000E+00
  0.00000000E+00  0.00000000E+00  0.00000000E+00
  0.00000000E+00  0.00000000E+00  0.00000000E+00
  0.00000000E+00  0.00000000E+00  0.00000000E+00
  0.00000000E+00  0.00000000E+00  0.00000000E+00
  0.00000000E+00  0.00000000E+00  0.00000000E+00
  0.00000000E+00  0.00000000E+00  0.00000000E+00
  0.00000000E+00  0.00000000E+00  0.00000000E+00
  0.00000000E+00  0.00000000E+00  0.00000000E+00
  0.00000000E+00  0.00000000E+00  0.00000000E+00
  0.00000000E+00  0.00000000E+00  0.00000000E+00
  0.00000000E+00  0.00000000E+00  0.00000000E+00
  0.00000000E+00  0.00000000E+00  0.00000000E+00
  0.00000000E+00  0.00000000E+00  0.00000000E+00
  0.00000000E+00  0.00000000E+00  0.00000000E+00
  0.00000000E+00  0.00000000E+00  0.00000000E+00
  0.00000000E+00  0.00000000E+00  0.00000000E+00
  0.00000000E+00  0.00000000E+00  0.00000000E+00
  0.00000000E+00  0.00000000E+00  0.00000000E+00
  0.00000000E+00  0.00000000E+00  0.00000000E+00
  0.00000000E+00  0.00000000E+00  0.00000000E+00
