FeNiCoMn_sqsbcc64_Config02              
   3.00000000000000     
     1.9055921954251789    1.8614657520556812   -1.9280129333359843
    -1.9023334952841868   -1.8599133503882879   -1.9232209157580260
    -1.9080026732598221    1.8622800796779844    1.9264461856506570
   Fe   Ni   Co   Mn
    16    16    16    16
Direct
 -0.0002193625601685  0.7501643125858622  0.7420164995998645
 -0.0063118471828675  0.2499185808136633  0.7579822203492596
  0.2451742607577718 -0.0012633666539954  0.7431703694963993
  0.0048720243291713  0.2575678490462388  0.5128720022619739
  0.2505438630194541  0.7511640473261801  0.4898747865422063
  0.0072362964228771  0.7461039139948620  0.2380173419840897
  0.7527762373726923  0.7501083909684206  0.7350264751152346
  0.4980398122273429  0.7469953982374794  0.4939869602293590
  0.4975123535721170  0.0036367325131364  0.4996663134216644
  0.2377396771320875  0.5029821227092863  0.2474612504540204
  0.2490768647559939  0.2560427802997918  0.2499601985290037
 -0.0053320030573290  0.2459559627957895  0.0046543546713916
  0.5010439369778832  0.2535938748385396  0.2586632835978441
  0.4970489368295580  0.0044658425106067  0.2543106130151085
  0.2423636922288886  0.2490241770112519  0.0006483379115647
  0.4884430120360247  0.2437377467215220 -0.0019621220776470
  0.0101095932028371  0.5064628318850545  0.7615082491290801
  0.2414306204547183  0.2446760530462123  0.7435261760844211
 -0.0161145105568105  0.4956644315800545  0.2535774038644431
 -0.0064104468923459 -0.0015259146383734  0.2534850528258487
  0.7466590705725034 -0.0034958252274797  0.7558981156395083
  0.4962247771714818  0.5020414160489159  0.5119610944394993
  0.2638646883339729  0.7554742457123470  0.2440493166945435
  0.2501097726442355  0.0131286906754796  0.2545845680279224
 -0.0051025232508508  0.4969674583161683  0.0080635798716700
  0.4859248607858206  0.4981365454476460  0.2566828934195110
  0.2851452195333217  0.7521686605684184 -0.0049310403466606
  0.7599327202617447  0.7494195074547388  0.2261943115018002
  0.7498935709139518  0.0091495009269154  0.2665933241231390
  0.4997435008359488 -0.0057166930077539  0.0007508395067268
  0.7812244119825347  0.7470031373535017 -0.0152145818563381
  0.7528566741145775 -0.0058676455214489  0.0112968432233203
  0.0017272005340535  0.0003257163708142  0.7483910796953753
  0.2603939051923574  0.5080915562402940  0.7591758811265108
 -0.0036877515247298  0.4973007775425438  0.5033823073732353
 -0.0159806809166669 -0.0034469850493512  0.4943129764669726
  0.5044393921580808  0.7477761443917161  0.7441639785609073
  0.2412123395642490  0.5045908598106935  0.4951603968280334
  0.2390123555957000 -0.0049770659410259  0.4943328675570977
  0.0019058077923041  0.2497547455354370  0.2557183752426117
  0.7443953590647496  0.2463321483294319  0.7535299621922634
  0.5038775429432709  0.2558841139868848  0.5106568737048319
  0.7508000819842232  0.7543684562496088  0.4908424983714789
  0.7469689196553462  0.5040262371516870  0.4983582220185788
  0.7489259746242235  0.0055082373488309  0.5119504383856371
  0.2405054201646942  0.4962459111222156 -0.0021432797318833
  0.5357424442903256  0.7544098395703746  0.0011227053513604
  0.4842222048494066  0.4971086141620207  0.0024078339199142
  0.2513649591381384  0.7467419783918945  0.7410311822757147
 -0.0038397721300570  0.7483935570493079  0.4890114479181253
  0.5041946174902113  0.5077498659443562  0.7638490171657745
  0.4919947188994485  0.2432572005179256  0.7476193449146746
  0.4968958000713465 -0.0080802090731833  0.7483591230055072
  0.2476949018301288  0.2515059733934224  0.4987751217039821
  0.7581935079055077  0.4987117744938974  0.7544644010504242
  0.0373783621740865  0.7523841875244736  0.0025009705315846
 -0.0017866528419230 -0.0012866047807280  0.0010441977081823
  0.7526895893451754  0.2568584248878281  0.5109523523300232
  0.5122477784382006  0.7498838888642296  0.2419040075999646
  0.2537280154094482 -0.0036687500977473 -0.0013652105248548
  0.7300040645221377  0.5007962880632549  0.2418866179212956
  0.7495341679715056  0.2495878742108049  0.2520155614937032
  0.7346444902056022  0.4857479091282024 -0.0065783513575463
  0.7451011806303177  0.2442325683208539 -0.0012079320492504
 
  0.00000000E+00  0.00000000E+00  0.00000000E+00
  0.00000000E+00  0.00000000E+00  0.00000000E+00
  0.00000000E+00  0.00000000E+00  0.00000000E+00
  0.00000000E+00  0.00000000E+00  0.00000000E+00
  0.00000000E+00  0.00000000E+00  0.00000000E+00
  0.00000000E+00  0.00000000E+00  0.00000000E+00
  0.00000000E+00  0.00000000E+00  0.00000000E+00
  0.00000000E+00  0.00000000E+00  0.00000000E+00
  0.00000000E+00  0.00000000E+00  0.00000000E+00
  0.00000000E+00  0.00000000E+00  0.00000000E+00
  0.00000000E+00  0.00000000E+00  0.00000000E+00
  0.00000000E+00  0.00000000E+00  0.00000000E+00
  0.00000000E+00  0.00000000E+00  0.00000000E+00
  0.00000000E+00  0.00000000E+00  0.00000000E+00
  0.00000000E+00  0.00000000E+00  0.00000000E+00
  0.00000000E+00  0.00000000E+00  0.00000000E+00
  0.00000000E+00  0.00000000E+00  0.00000000E+00
  0.00000000E+00  0.00000000E+00  0.00000000E+00
  0.00000000E+00  0.00000000E+00  0.00000000E+00
  0.00000000E+00  0.00000000E+00  0.00000000E+00
  0.00000000E+00  0.00000000E+00  0.00000000E+00
  0.00000000E+00  0.00000000E+00  0.00000000E+00
  0.00000000E+00  0.00000000E+00  0.00000000E+00
  0.00000000E+00  0.00000000E+00  0.00000000E+00
  0.00000000E+00  0.00000000E+00  0.00000000E+00
  0.00000000E+00  0.00000000E+00  0.00000000E+00
  0.00000000E+00  0.00000000E+00  0.00000000E+00
  0.00000000E+00  0.00000000E+00  0.00000000E+00
  0.00000000E+00  0.00000000E+00  0.00000000E+00
  0.00000000E+00  0.00000000E+00  0.00000000E+00
  0.00000000E+00  0.00000000E+00  0.00000000E+00
  0.00000000E+00  0.00000000E+00  0.00000000E+00
  0.00000000E+00  0.00000000E+00  0.00000000E+00
  0.00000000E+00  0.00000000E+00  0.00000000E+00
  0.00000000E+00  0.00000000E+00  0.00000000E+00
  0.00000000E+00  0.00000000E+00  0.00000000E+00
  0.00000000E+00  0.00000000E+00  0.00000000E+00
  0.00000000E+00  0.00000000E+00  0.00000000E+00
  0.00000000E+00  0.00000000E+00  0.00000000E+00
  0.00000000E+00  0.00000000E+00  0.00000000E+00
  0.00000000E+00  0.00000000E+00  0.00000000E+00
  0.00000000E+00  0.00000000E+00  0.00000000E+00
  0.00000000E+00  0.00000000E+00  0.00000000E+00
  0.00000000E+00  0.00000000E+00  0.00000000E+00
  0.00000000E+00  0.00000000E+00  0.00000000E+00
  0.00000000E+00  0.00000000E+00  0.00000000E+00
  0.00000000E+00  0.00000000E+00  0.00000000E+00
  0.00000000E+00  0.00000000E+00  0.00000000E+00
  0.00000000E+00  0.00000000E+00  0.00000000E+00
  0.00000000E+00  0.00000000E+00  0.00000000E+00
  0.00000000E+00  0.00000000E+00  0.00000000E+00
  0.00000000E+00  0.00000000E+00  0.00000000E+00
  0.00000000E+00  0.00000000E+00  0.00000000E+00
  0.00000000E+00  0.00000000E+00  0.00000000E+00
  0.00000000E+00  0.00000000E+00  0.00000000E+00
  0.00000000E+00  0.00000000E+00  0.00000000E+00
  0.00000000E+00  0.00000000E+00  0.00000000E+00
  0.00000000E+00  0.00000000E+00  0.00000000E+00
  0.00000000E+00  0.00000000E+00  0.00000000E+00
  0.00000000E+00  0.00000000E+00  0.00000000E+00
  0.00000000E+00  0.00000000E+00  0.00000000E+00
  0.00000000E+00  0.00000000E+00  0.00000000E+00
  0.00000000E+00  0.00000000E+00  0.00000000E+00
  0.00000000E+00  0.00000000E+00  0.00000000E+00
