FeNiCoMn_SQSbcc64_17_Ni13               
   2.80000000000000     
    -0.5046527363415561    2.5549753317580906    1.5204760307508867
     2.5535066597314535    0.5159206688854318    1.5223699245952931
     1.5306311686566421    2.5534836688248972   -2.5261305071877223
   Fe   Ni   Co   Mn
    17    13    17    17
Direct
  0.9617045113968121  0.0629228707053260  0.2206509124090720
  0.9785061799365323  0.5318605833433165  0.1097414381885538
  0.8235575365646284  0.8415167706828723  0.2087273154046792
  0.0017145137145219  0.9985018175856297  0.0027022011459568
  0.5019020591504942  0.0018876405878379  0.4970041451760742
  0.3765568431739655  0.2499913613032753  0.3708475425502075
  0.2013676100871966  0.0939286592385367  0.5776163730865612
  0.4799666782585132  0.5338068332543098  0.6148234702248423
  0.6195797025350376  0.7550843777027628  0.6263146170070706
  0.7672736061970661  0.9749733087087084  0.6405362594507714
  0.4395495952082296  0.1228353138996335  0.9349185842443001
  0.7144362622355520  0.5787556339705870  0.9705735891954445
  0.3110951602729671  0.3728702262954072  0.8160332028656663
  0.1899335454506569  0.6230956432084708  0.6909377237025330
  0.3214598301267100  0.8415927425473565  0.7042268851878308
  0.0109799999695322  0.4671424576332117  0.8943436817483089
  0.1486181689192234  0.6865128326840526  0.9041212255468750
  0.8163741163427356  0.3741373132022030  0.3124620580257217
  0.9591619469102729  0.5951183213676765  0.3254406451854791
  0.1481920531200791  0.2122172123418219  0.0138087191940214
  0.2755184376742297  0.4441540936326308  0.0319108381894653
  0.5623456029960830  0.8750647536515339  0.0602721339966046
  0.9132607379568491  0.6566297492040476  0.5503035199680352
  0.6572832336972078  0.6897284342936880  0.4095730704928428
  0.7979093721772779  0.9106009495682150  0.4240925659519756
  0.6062413946225944  0.2775883823097179  0.7268671354999304
  0.3435227810284937  0.3147261767368226  0.5908992463191324
  0.0961544423874397  0.8199831356318709  0.3442206178742446
  0.0635938432272021  0.8728759306354771  0.5676271326699974
  0.2942104531587465  0.9045106101409603  0.9225978909979268
  0.9455999029770545  0.1187521495888035  0.4347740205980335
  0.6705901041876153  0.1593552043938995  0.2932265414610641
  0.6902639313283389  0.6258739901429604  0.1879355142033766
  0.4221866204505390  0.6535739340728790  0.0476219678796006
  0.9098069737265584  0.1817764900020971  0.6554637311590844
  0.6493904354636039  0.2107733109598107  0.5085700914873417
  0.2369004487231808  0.0366838516683691  0.3596265066039032
  0.2622503457508497  0.4956190103369956  0.2539220812278932
  0.3985421620633112  0.7181116044031316  0.2626611789035710
  0.5329438398892017  0.9428396641945767  0.2807019621331148
  0.7335615551765464  0.0271429775858371  0.8605947506629977
  0.0807187163195525  0.3367831377191850  0.4517236843399610
  0.8639194563499373  0.7824497667455727  0.9905703689666556
  0.1725773190693660  0.1559820554502419  0.7928139921363893
  0.4416886049634668  0.6009257582483273  0.8315998169004335
  0.5934094347333294  0.8115588220859415  0.8412023847375565
  0.0314163239671899  0.9382639691830601  0.7874752332309816
  0.7022903914904355  0.0930531223673933  0.0774474144874569
  0.8435116902442567  0.3110403832628988  0.0883101617454197
  0.4116947954944585  0.1863154120572697  0.1501865838948762
  0.5524698981927973  0.4065183933875861  0.1653226000262062
  0.7843740939674494  0.4337208450225659  0.5290372446802903
  0.5208667540942529  0.4726322463005767  0.3919260661679866
  0.1140367930696741  0.2822570401667833  0.2318288862741074
  0.1278940854750589  0.7439245994841092  0.1297638952861723
  0.2693996024419796  0.9688163129017128  0.1438840771972070
  0.8757443763262794  0.2459546675069311  0.8742828736553694
  0.4646575141922289  0.0616071584928966  0.7176527393149902
  0.7339499553706367  0.4990834923814599  0.7568198768267979
  0.8895364222339778  0.7208291936039145  0.7678059483420361
  0.2071327674493749  0.5644284548978377  0.4679058241092995
  0.3591791423861590  0.7838352467673921  0.4786017508256509
  0.5827444312147750  0.3404777259531143  0.9510400343623301
  0.0427808927197267  0.4044258725958641  0.6735054546717600
 
  0.00000000E+00  0.00000000E+00  0.00000000E+00
  0.00000000E+00  0.00000000E+00  0.00000000E+00
  0.00000000E+00  0.00000000E+00  0.00000000E+00
  0.00000000E+00  0.00000000E+00  0.00000000E+00
  0.00000000E+00  0.00000000E+00  0.00000000E+00
  0.00000000E+00  0.00000000E+00  0.00000000E+00
  0.00000000E+00  0.00000000E+00  0.00000000E+00
  0.00000000E+00  0.00000000E+00  0.00000000E+00
  0.00000000E+00  0.00000000E+00  0.00000000E+00
  0.00000000E+00  0.00000000E+00  0.00000000E+00
  0.00000000E+00  0.00000000E+00  0.00000000E+00
  0.00000000E+00  0.00000000E+00  0.00000000E+00
  0.00000000E+00  0.00000000E+00  0.00000000E+00
  0.00000000E+00  0.00000000E+00  0.00000000E+00
  0.00000000E+00  0.00000000E+00  0.00000000E+00
  0.00000000E+00  0.00000000E+00  0.00000000E+00
  0.00000000E+00  0.00000000E+00  0.00000000E+00
  0.00000000E+00  0.00000000E+00  0.00000000E+00
  0.00000000E+00  0.00000000E+00  0.00000000E+00
  0.00000000E+00  0.00000000E+00  0.00000000E+00
  0.00000000E+00  0.00000000E+00  0.00000000E+00
  0.00000000E+00  0.00000000E+00  0.00000000E+00
  0.00000000E+00  0.00000000E+00  0.00000000E+00
  0.00000000E+00  0.00000000E+00  0.00000000E+00
  0.00000000E+00  0.00000000E+00  0.00000000E+00
  0.00000000E+00  0.00000000E+00  0.00000000E+00
  0.00000000E+00  0.00000000E+00  0.00000000E+00
  0.00000000E+00  0.00000000E+00  0.00000000E+00
  0.00000000E+00  0.00000000E+00  0.00000000E+00
  0.00000000E+00  0.00000000E+00  0.00000000E+00
  0.00000000E+00  0.00000000E+00  0.00000000E+00
  0.00000000E+00  0.00000000E+00  0.00000000E+00
  0.00000000E+00  0.00000000E+00  0.00000000E+00
  0.00000000E+00  0.00000000E+00  0.00000000E+00
  0.00000000E+00  0.00000000E+00  0.00000000E+00
  0.00000000E+00  0.00000000E+00  0.00000000E+00
  0.00000000E+00  0.00000000E+00  0.00000000E+00
  0.00000000E+00  0.00000000E+00  0.00000000E+00
  0.00000000E+00  0.00000000E+00  0.00000000E+00
  0.00000000E+00  0.00000000E+00  0.00000000E+00
  0.00000000E+00  0.00000000E+00  0.00000000E+00
  0.00000000E+00  0.00000000E+00  0.00000000E+00
  0.00000000E+00  0.00000000E+00  0.00000000E+00
  0.00000000E+00  0.00000000E+00  0.00000000E+00
  0.00000000E+00  0.00000000E+00  0.00000000E+00
  0.00000000E+00  0.00000000E+00  0.00000000E+00
  0.00000000E+00  0.00000000E+00  0.00000000E+00
  0.00000000E+00  0.00000000E+00  0.00000000E+00
  0.00000000E+00  0.00000000E+00  0.00000000E+00
  0.00000000E+00  0.00000000E+00  0.00000000E+00
  0.00000000E+00  0.00000000E+00  0.00000000E+00
  0.00000000E+00  0.00000000E+00  0.00000000E+00
  0.00000000E+00  0.00000000E+00  0.00000000E+00
  0.00000000E+00  0.00000000E+00  0.00000000E+00
  0.00000000E+00  0.00000000E+00  0.00000000E+00
  0.00000000E+00  0.00000000E+00  0.00000000E+00
  0.00000000E+00  0.00000000E+00  0.00000000E+00
  0.00000000E+00  0.00000000E+00  0.00000000E+00
  0.00000000E+00  0.00000000E+00  0.00000000E+00
  0.00000000E+00  0.00000000E+00  0.00000000E+00
  0.00000000E+00  0.00000000E+00  0.00000000E+00
  0.00000000E+00  0.00000000E+00  0.00000000E+00
  0.00000000E+00  0.00000000E+00  0.00000000E+00
  0.00000000E+00  0.00000000E+00  0.00000000E+00
