FeNiCoPd_SQSbcc64_15_Fe19               
   2.80000000000000     
     1.2954856816890155   -1.8617767541602368   -0.0032352818138309
    -3.8936189151500775   -0.9245464840819553    0.9247991966489929
    -0.6473651040502300    0.4573359793811239   -4.1873554137917415
   Fe   Ni   Co   Pd
    19    15    15    15
Direct
  0.3109345872593275  0.9158643353892802  0.0936822377125906
  0.2496747349216724  0.6879216680351302  0.3680589788932921
  0.0552811295957511  0.4848916439589867  0.2168501248100174
  0.6853686324767289  0.8218993477808747  0.3982438084089925
  0.4964522511839359  0.8654169397120081  0.7509414313176136
  0.1357164899957969  0.4724116674500722  0.4393397711437178
  0.7501373871928237  0.8018680723212223  0.6330711576968894
  0.0086129301645712  0.0006593231698047  0.0073264274726711
  0.3683212831286269  0.6509747398793788  0.8144419069130734
  0.8187056233050292  0.7857680613812850  0.8480069303736182
  0.6074376420941536  0.5881654840221812  0.6900758300730900
  0.2394769168530215  0.1870383445233388  0.3698425109551343
  0.0715829908995647  0.2439342687638625  0.7216548809212541
  0.9287292258568351  0.5138985642202702  0.7880593373912196
  0.8119751300741679  0.0466352773725742  0.3411554250724272
  0.5732225296438282  0.3686089648466319  0.9630725005800139
  0.3789173578481873  0.1600936928126949  0.8090707940062902
  0.6885303302120790  0.0790417581564069  0.9084939455724729
  0.9325772496007719  0.0033413252587940  0.7850032717630634
  0.0741675237029347  0.9847964888191858  0.2184867557025666
  0.1839269957423323  0.6984604435048352  0.1520150298621765
  0.0036726121494468  0.5064910003088656 -0.0022809597124229
  0.8866759168519609  0.7788691089469858  0.0586016062310844
  0.1957421367630913  0.9544057898207505  0.6627189372808505
  0.9542788145237830  0.7705133992007149  0.2761415367174676
  0.0680749239566861  0.7312767132620238  0.7243133922176308
  0.3173094011114685  0.6669142797288161  0.5996682851933298
  0.5460369577937714  0.6092045560833547  0.4691073740406432
  0.3560839312161139  0.4086626747071088  0.3149835943040140
  0.1967566438071082  0.2042339955650948  0.1634406855770383
  0.6169909280010775  0.3409640553350903  0.1823889355790478
  0.1896050295273944  0.4570153723353624  0.6647007173231305
  0.4337354886340019  0.3938153384573655  0.5355070855422415
  0.2508560789359282  0.4433373721887573  0.8747583829054570
  0.1171543950497060  0.9700874773677781  0.4257507025486975
  0.3689591252311735  0.9050856593233869  0.3050781204187893
  0.4440050106340926  0.6434319212208839  0.0213095074275692
  0.4826937324485732  0.6269684321402844  0.2554731830481892
  0.7603848528421360  0.5691493396920519  0.1177091196894065
  0.4291725143865510  0.1381957544822045  0.0366569695954996
  0.1329475996356057  0.7135986489995406  0.9390512994049089
  0.5827043085999435  0.8541736284665672  0.9601624159108856
  0.4855804480398468  0.1225754725136304  0.2425472879229228
  0.9343451326767764  0.2681397067348910  0.2798109209958236
  0.6898402266795174  0.5797441147740651  0.9084216816759668
  0.4973086104241780  0.3804263549125247  0.7499254253252682
  0.3193317584305455  0.1788156472389831  0.6012712310119784
  0.7387568619450255  0.3167512889246468  0.6354406905814302
  0.8158249742608864  0.3059458300405989  0.8427029948144077
  0.6242980573244036  0.8351214760247954  0.1826806547935572
 -0.0038102934861638  0.7565380636908861  0.5018566323952144
  0.4401545022590941  0.8808946527810116  0.5294891937820962
  0.3259492182444445  0.4315443455787384  0.0967373289630796
  0.2573336321844930  0.9347978806421028  0.8774405866938455
  0.8006503369030198  0.5511192503901988  0.3335851827651986
  0.8669719631381104  0.2862611771481479  0.0610058451126561
  0.0065022496478068  0.2562629833839306  0.5027069086557483
  0.8711359823336062  0.5308638453701862  0.5694055326073987
  0.6720164174887067  0.3285821228161646  0.4001138787629533
  0.7513070231846232  0.0621277283724792  0.1246272550295998
  0.5486394040396060  0.1066478632646774  0.4644284330452412
  0.1280458178354748  0.2181050664852807  0.9343461224835090
  0.6340350524171475  0.0963447860233831  0.6950017671270898
  0.8921932801770966  0.0243054138768687  0.5643204975693721
 
  0.00000000E+00  0.00000000E+00  0.00000000E+00
  0.00000000E+00  0.00000000E+00  0.00000000E+00
  0.00000000E+00  0.00000000E+00  0.00000000E+00
  0.00000000E+00  0.00000000E+00  0.00000000E+00
  0.00000000E+00  0.00000000E+00  0.00000000E+00
  0.00000000E+00  0.00000000E+00  0.00000000E+00
  0.00000000E+00  0.00000000E+00  0.00000000E+00
  0.00000000E+00  0.00000000E+00  0.00000000E+00
  0.00000000E+00  0.00000000E+00  0.00000000E+00
  0.00000000E+00  0.00000000E+00  0.00000000E+00
  0.00000000E+00  0.00000000E+00  0.00000000E+00
  0.00000000E+00  0.00000000E+00  0.00000000E+00
  0.00000000E+00  0.00000000E+00  0.00000000E+00
  0.00000000E+00  0.00000000E+00  0.00000000E+00
  0.00000000E+00  0.00000000E+00  0.00000000E+00
  0.00000000E+00  0.00000000E+00  0.00000000E+00
  0.00000000E+00  0.00000000E+00  0.00000000E+00
  0.00000000E+00  0.00000000E+00  0.00000000E+00
  0.00000000E+00  0.00000000E+00  0.00000000E+00
  0.00000000E+00  0.00000000E+00  0.00000000E+00
  0.00000000E+00  0.00000000E+00  0.00000000E+00
  0.00000000E+00  0.00000000E+00  0.00000000E+00
  0.00000000E+00  0.00000000E+00  0.00000000E+00
  0.00000000E+00  0.00000000E+00  0.00000000E+00
  0.00000000E+00  0.00000000E+00  0.00000000E+00
  0.00000000E+00  0.00000000E+00  0.00000000E+00
  0.00000000E+00  0.00000000E+00  0.00000000E+00
  0.00000000E+00  0.00000000E+00  0.00000000E+00
  0.00000000E+00  0.00000000E+00  0.00000000E+00
  0.00000000E+00  0.00000000E+00  0.00000000E+00
  0.00000000E+00  0.00000000E+00  0.00000000E+00
  0.00000000E+00  0.00000000E+00  0.00000000E+00
  0.00000000E+00  0.00000000E+00  0.00000000E+00
  0.00000000E+00  0.00000000E+00  0.00000000E+00
  0.00000000E+00  0.00000000E+00  0.00000000E+00
  0.00000000E+00  0.00000000E+00  0.00000000E+00
  0.00000000E+00  0.00000000E+00  0.00000000E+00
  0.00000000E+00  0.00000000E+00  0.00000000E+00
  0.00000000E+00  0.00000000E+00  0.00000000E+00
  0.00000000E+00  0.00000000E+00  0.00000000E+00
  0.00000000E+00  0.00000000E+00  0.00000000E+00
  0.00000000E+00  0.00000000E+00  0.00000000E+00
  0.00000000E+00  0.00000000E+00  0.00000000E+00
  0.00000000E+00  0.00000000E+00  0.00000000E+00
  0.00000000E+00  0.00000000E+00  0.00000000E+00
  0.00000000E+00  0.00000000E+00  0.00000000E+00
  0.00000000E+00  0.00000000E+00  0.00000000E+00
  0.00000000E+00  0.00000000E+00  0.00000000E+00
  0.00000000E+00  0.00000000E+00  0.00000000E+00
  0.00000000E+00  0.00000000E+00  0.00000000E+00
  0.00000000E+00  0.00000000E+00  0.00000000E+00
  0.00000000E+00  0.00000000E+00  0.00000000E+00
  0.00000000E+00  0.00000000E+00  0.00000000E+00
  0.00000000E+00  0.00000000E+00  0.00000000E+00
  0.00000000E+00  0.00000000E+00  0.00000000E+00
  0.00000000E+00  0.00000000E+00  0.00000000E+00
  0.00000000E+00  0.00000000E+00  0.00000000E+00
  0.00000000E+00  0.00000000E+00  0.00000000E+00
  0.00000000E+00  0.00000000E+00  0.00000000E+00
  0.00000000E+00  0.00000000E+00  0.00000000E+00
  0.00000000E+00  0.00000000E+00  0.00000000E+00
  0.00000000E+00  0.00000000E+00  0.00000000E+00
  0.00000000E+00  0.00000000E+00  0.00000000E+00
  0.00000000E+00  0.00000000E+00  0.00000000E+00
