FeNiCoMn_SQSbcc64_17_Fe13               
   2.80000000000000     
    -0.4998109370982564    2.5239096447423801    1.5594624816804610
     2.4955520190785911    0.5048417117640761    1.5580559845075908
     1.4974610207300088    2.5219092687467888   -2.5961702987425341
   Fe   Ni   Co   Mn
    13    17    17    17
Direct
  0.8135391889527948  0.3706213023345258  0.3095794949222746
  0.9562873297989222  0.5912603668396950  0.3352493089343473
  0.1370887656229234  0.2198021438246215  0.0168779236418756
  0.2735456276967611  0.4432975306364912  0.0278321600566429
  0.5717075909783167  0.8650054103384710  0.0595676871254219
  0.9228655804825207  0.6632243176867900  0.5461285781286660
  0.6603706764884681  0.6991073788747751  0.3975144089672731
  0.7962939684682517  0.9127012509112320  0.4258996866194787
  0.6094879831388174  0.2730457111853352  0.7367609432623289
  0.3535379974410395  0.3071774673568342  0.5854553476506326
  0.0972542194223888  0.8162738479012659  0.3461391024224746
  0.0623465671686948  0.8748635389716680  0.5615769700814128
  0.3028622381321008  0.8993154143049370  0.9238210281659968
  0.9717198567063811  0.0604453098423021  0.2142728200792836
  0.9770638013000994  0.5275067673263094  0.1218633589711011
  0.8243461633244834  0.8385225321846616  0.2117050467164620
  0.0034924501387500  0.0000981376819637  0.9882998723772114
  0.5001826556695260  0.0165078473518518  0.4862157447230748
  0.3751799769151403  0.2602483528064197  0.3634884672891467
  0.2037877030822125  0.0886689915409855  0.5866197793547806
  0.4825683150464902  0.5297154248456424  0.6161087022683738
  0.6206928353306860  0.7602921395054716  0.6167197693439103
  0.7702069605095463  0.9674125643153318  0.6437638399139014
  0.4373728814456908  0.1169473783440498  0.9352583139313151
  0.7130228010902530  0.5553510919408864  0.9703230481740690
  0.3126280053278621  0.3726370676005201  0.8065117791949921
  0.1795030531208000  0.6222133607886859  0.6821806802197814
  0.3251761518963940  0.8268588450010549  0.7137719557459632
  0.0158224520097010  0.4707688920919758  0.8998844597208336
  0.1574345742500656  0.6967873262146216  0.8987634462374205
  0.9388704391249030  0.1257255558437114  0.4395189569898966
  0.6732928155024551  0.1527587028409726  0.2996517110818898
  0.6802429440482041  0.6235031047546025  0.1897998439090297
  0.4157792076790846  0.6581264847199345  0.0500714190816376
  0.9010053262091078  0.1923988244869745  0.6545717016352540
  0.6441722481205475  0.2279113613806843  0.5180149435233652
  0.2372577002624745  0.0320492821996836  0.3639946454079656
  0.2480546536580391  0.5075493564016690  0.2436550927778072
  0.3871209104672157  0.7200049202258828  0.2687796418768341
  0.5244853666687113  0.9451078747833639  0.2730679922023607
  0.7420836300447113  0.0297672287819717  0.8631086603981163
  0.0781516600991102  0.3400506255749814  0.4569659595891250
  0.8578579857997316  0.7752534347869821  0.9876841566578447
  0.1698702146663216  0.1487711774223451  0.8060078250003355
  0.4588443122677326  0.5856500916633418  0.8380697768949101
  0.5933185107813645  0.8105525161008136  0.8431628958612746
  0.0282251977203084  0.9458796435480902  0.7703564684020030
  0.7133164573288939  0.0909479932128488  0.0805717014807385
  0.8419182057439771  0.3088218574698335  0.0932968441579438
  0.4083876768218476  0.1881247657022805  0.1483929014670176
  0.5499237728574797  0.4024066336668186  0.1692716919475139
  0.7789525751375802  0.4473659652942320  0.5309705568660281
  0.5210861906088093  0.4732982489146509  0.3910810630202586
  0.1145217505509096  0.2772637213154067  0.2381366667501197
  0.1128114375076990  0.7552564562950425  0.1198005496505437
  0.2689934444452068  0.9700440964303291  0.1439234598339418
  0.8708294797321275  0.2608207828017710  0.8749032234583243
  0.4645866768549394  0.0488179152445879  0.7117631345368344
  0.7514112315286476  0.5047217069294576  0.7419758453617953
  0.8899576286315413  0.7179598142889669  0.7718158453883385
  0.2190029693909125  0.5589873835127004  0.4677916020215405
  0.3674954453512588  0.7889107466700013  0.4899898390965327
  0.5689712382530150  0.3389710108707646  0.9555248484175338
  0.0518123251790856  0.3995430053149571  0.6761548110148792
 
  0.00000000E+00  0.00000000E+00  0.00000000E+00
  0.00000000E+00  0.00000000E+00  0.00000000E+00
  0.00000000E+00  0.00000000E+00  0.00000000E+00
  0.00000000E+00  0.00000000E+00  0.00000000E+00
  0.00000000E+00  0.00000000E+00  0.00000000E+00
  0.00000000E+00  0.00000000E+00  0.00000000E+00
  0.00000000E+00  0.00000000E+00  0.00000000E+00
  0.00000000E+00  0.00000000E+00  0.00000000E+00
  0.00000000E+00  0.00000000E+00  0.00000000E+00
  0.00000000E+00  0.00000000E+00  0.00000000E+00
  0.00000000E+00  0.00000000E+00  0.00000000E+00
  0.00000000E+00  0.00000000E+00  0.00000000E+00
  0.00000000E+00  0.00000000E+00  0.00000000E+00
  0.00000000E+00  0.00000000E+00  0.00000000E+00
  0.00000000E+00  0.00000000E+00  0.00000000E+00
  0.00000000E+00  0.00000000E+00  0.00000000E+00
  0.00000000E+00  0.00000000E+00  0.00000000E+00
  0.00000000E+00  0.00000000E+00  0.00000000E+00
  0.00000000E+00  0.00000000E+00  0.00000000E+00
  0.00000000E+00  0.00000000E+00  0.00000000E+00
  0.00000000E+00  0.00000000E+00  0.00000000E+00
  0.00000000E+00  0.00000000E+00  0.00000000E+00
  0.00000000E+00  0.00000000E+00  0.00000000E+00
  0.00000000E+00  0.00000000E+00  0.00000000E+00
  0.00000000E+00  0.00000000E+00  0.00000000E+00
  0.00000000E+00  0.00000000E+00  0.00000000E+00
  0.00000000E+00  0.00000000E+00  0.00000000E+00
  0.00000000E+00  0.00000000E+00  0.00000000E+00
  0.00000000E+00  0.00000000E+00  0.00000000E+00
  0.00000000E+00  0.00000000E+00  0.00000000E+00
  0.00000000E+00  0.00000000E+00  0.00000000E+00
  0.00000000E+00  0.00000000E+00  0.00000000E+00
  0.00000000E+00  0.00000000E+00  0.00000000E+00
  0.00000000E+00  0.00000000E+00  0.00000000E+00
  0.00000000E+00  0.00000000E+00  0.00000000E+00
  0.00000000E+00  0.00000000E+00  0.00000000E+00
  0.00000000E+00  0.00000000E+00  0.00000000E+00
  0.00000000E+00  0.00000000E+00  0.00000000E+00
  0.00000000E+00  0.00000000E+00  0.00000000E+00
  0.00000000E+00  0.00000000E+00  0.00000000E+00
  0.00000000E+00  0.00000000E+00  0.00000000E+00
  0.00000000E+00  0.00000000E+00  0.00000000E+00
  0.00000000E+00  0.00000000E+00  0.00000000E+00
  0.00000000E+00  0.00000000E+00  0.00000000E+00
  0.00000000E+00  0.00000000E+00  0.00000000E+00
  0.00000000E+00  0.00000000E+00  0.00000000E+00
  0.00000000E+00  0.00000000E+00  0.00000000E+00
  0.00000000E+00  0.00000000E+00  0.00000000E+00
  0.00000000E+00  0.00000000E+00  0.00000000E+00
  0.00000000E+00  0.00000000E+00  0.00000000E+00
  0.00000000E+00  0.00000000E+00  0.00000000E+00
  0.00000000E+00  0.00000000E+00  0.00000000E+00
  0.00000000E+00  0.00000000E+00  0.00000000E+00
  0.00000000E+00  0.00000000E+00  0.00000000E+00
  0.00000000E+00  0.00000000E+00  0.00000000E+00
  0.00000000E+00  0.00000000E+00  0.00000000E+00
  0.00000000E+00  0.00000000E+00  0.00000000E+00
  0.00000000E+00  0.00000000E+00  0.00000000E+00
  0.00000000E+00  0.00000000E+00  0.00000000E+00
  0.00000000E+00  0.00000000E+00  0.00000000E+00
  0.00000000E+00  0.00000000E+00  0.00000000E+00
  0.00000000E+00  0.00000000E+00  0.00000000E+00
  0.00000000E+00  0.00000000E+00  0.00000000E+00
  0.00000000E+00  0.00000000E+00  0.00000000E+00
