FeNiCrMn_sqsbcc64_Config02              
   3.00000000000000     
     1.8713501415229161    1.9174258444802244   -1.8655020268936275
    -1.8748360887336499   -1.9155000575702004   -1.8671776641695699
    -1.8706087337311894    1.9147771693414306    1.8634928245827194
   Fe   Ni   Cr   Mn
    16    16    16    16
Direct
  0.9833999031228552  0.7418840969403322  0.7337292971766601
  0.0019442647498187  0.2588734996502920  0.7754693661132683
  0.2435091362834625  0.9969589565312769  0.7435406686585493
  0.0093771554643101  0.2691612675828361  0.5322652273241150
  0.2528406229964771  0.7479770480418291  0.5038162723244737
  0.0253171945153655  0.7373961018134091  0.2502553702254814
  0.7435699310393966  0.7553648954410063  0.7165385918627184
  0.5028395451899186  0.7506539170162676  0.4993274860909471
  0.5053962232110791  0.0054973121151681  0.5031786042764411
  0.2519271291309151  0.4901487838717963  0.2644719846693984
  0.2392261861711064  0.2257588752127579  0.2402333569837141
  0.0003289006145499  0.2473435807040804  0.0217211950584543
  0.4952841338824649  0.2389677875668499  0.2440091943063856
  0.5173505770267169  0.0036984919329045  0.2573075240140989
  0.2424984153694487  0.2452195771491271  0.0021640134628005
  0.4906254392310800  0.2515876497023115  0.9925544563176661
  0.9948172335390503  0.5055224718139087  0.7668772938618413
  0.2462764185686768  0.2505521099169155  0.7520691167770177
  0.9979416859736222  0.4833312368474104  0.2609636995096419
  0.0075999048543164  0.9731280294841217  0.2338201774040382
  0.7538986206305657  0.0204779409782760  0.7579665295781300
  0.4812861066071663  0.4906636440694270  0.5005888334267676
  0.2775250056964840  0.7401617142134237  0.2599530669890160
  0.2606470499455498  0.9779745181964503  0.2443500670586547
  0.0112207693612182  0.4987763034130405  0.0209074487263192
  0.4959870043593626  0.4928661027789760  0.2527035048402350
  0.2652681345630389  0.7536163647541213  0.0094312205109552
  0.7773384538117634  0.7527524198735782  0.2286488972380090
  0.7796302522323613  0.0119084272659443  0.2646159260150848
  0.4840150562355355  0.9981209829975958  0.9954829550162887
  0.7449413830901210  0.7557801731062801  0.9658700613138158
  0.7434011658782298  0.0150819232996820  0.0063658611030716
  0.0036560850027138  0.0023995890942554  0.7478908761961827
  0.2526797979744820  0.5152153321399715  0.7708011781389218
  0.9928481530103545  0.5044386540081133  0.5086487379039412
  0.9922411987540889  0.0062088302519210  0.4934191016363217
  0.4982367479015852  0.7479557618758337  0.7471316547320613
  0.2413476819685172  0.4999414023023244  0.5108171614711577
  0.2437835248426027  0.9980185511132940  0.5018517319812752
  0.0071626268240762  0.2363583495944347  0.2709599175337741
  0.7559364809454747  0.2756596104735219  0.7541161482757903
  0.4936275370541962  0.2455685100931937  0.4952832886415099
  0.7517174662908505  0.7555348003506523  0.4850951496627335
  0.7346788880937875  0.4997136842560042  0.4789229361479965
  0.7613126652047320  0.0156660965716328  0.5098569652782603
  0.2629616690023711  0.5027516829759214  0.0187720195030316
  0.5216745447529559  0.7619915083686160  0.0142836976278875
  0.5024937945754558  0.5108914544166621  0.0024844537524575
  0.2376179910455926  0.7415065124062061  0.7468300293215679
  0.9936102374146869  0.7478273648519593  0.4883361357939152
  0.4772561535464820  0.4887485390627210  0.7547750136412197
  0.5012489841540819  0.2520649999140278  0.7398685657410513
  0.4970291270502662  0.9969532093530423  0.7507791291437745
  0.2464365536781984  0.2426836797798071  0.4984139291845684
  0.7256693547873275  0.5117199539409317  0.7275100784039840
  0.9925052680872262  0.7321562668376498  0.9862737880392380
  0.9758739758841791  0.9842986895583336  0.9782829905056964
  0.7468116417648898  0.2647360865150592  0.5057740866985320
  0.5306514808530478  0.7607505912148058  0.2564482651492488
  0.2314570294316794  0.9854680212553070  0.9908226312564221
  0.7457053397837903  0.4995140655882064  0.2372181020741078
  0.7563947320104987  0.2488964561630058  0.2462919856450752
  0.7528171658120347  0.5138567253729415  0.9919604416604265
  0.7453270991517585  0.2632988160182194  0.9888825410238331
 
  0.00000000E+00  0.00000000E+00  0.00000000E+00
  0.00000000E+00  0.00000000E+00  0.00000000E+00
  0.00000000E+00  0.00000000E+00  0.00000000E+00
  0.00000000E+00  0.00000000E+00  0.00000000E+00
  0.00000000E+00  0.00000000E+00  0.00000000E+00
  0.00000000E+00  0.00000000E+00  0.00000000E+00
  0.00000000E+00  0.00000000E+00  0.00000000E+00
  0.00000000E+00  0.00000000E+00  0.00000000E+00
  0.00000000E+00  0.00000000E+00  0.00000000E+00
  0.00000000E+00  0.00000000E+00  0.00000000E+00
  0.00000000E+00  0.00000000E+00  0.00000000E+00
  0.00000000E+00  0.00000000E+00  0.00000000E+00
  0.00000000E+00  0.00000000E+00  0.00000000E+00
  0.00000000E+00  0.00000000E+00  0.00000000E+00
  0.00000000E+00  0.00000000E+00  0.00000000E+00
  0.00000000E+00  0.00000000E+00  0.00000000E+00
  0.00000000E+00  0.00000000E+00  0.00000000E+00
  0.00000000E+00  0.00000000E+00  0.00000000E+00
  0.00000000E+00  0.00000000E+00  0.00000000E+00
  0.00000000E+00  0.00000000E+00  0.00000000E+00
  0.00000000E+00  0.00000000E+00  0.00000000E+00
  0.00000000E+00  0.00000000E+00  0.00000000E+00
  0.00000000E+00  0.00000000E+00  0.00000000E+00
  0.00000000E+00  0.00000000E+00  0.00000000E+00
  0.00000000E+00  0.00000000E+00  0.00000000E+00
  0.00000000E+00  0.00000000E+00  0.00000000E+00
  0.00000000E+00  0.00000000E+00  0.00000000E+00
  0.00000000E+00  0.00000000E+00  0.00000000E+00
  0.00000000E+00  0.00000000E+00  0.00000000E+00
  0.00000000E+00  0.00000000E+00  0.00000000E+00
  0.00000000E+00  0.00000000E+00  0.00000000E+00
  0.00000000E+00  0.00000000E+00  0.00000000E+00
  0.00000000E+00  0.00000000E+00  0.00000000E+00
  0.00000000E+00  0.00000000E+00  0.00000000E+00
  0.00000000E+00  0.00000000E+00  0.00000000E+00
  0.00000000E+00  0.00000000E+00  0.00000000E+00
  0.00000000E+00  0.00000000E+00  0.00000000E+00
  0.00000000E+00  0.00000000E+00  0.00000000E+00
  0.00000000E+00  0.00000000E+00  0.00000000E+00
  0.00000000E+00  0.00000000E+00  0.00000000E+00
  0.00000000E+00  0.00000000E+00  0.00000000E+00
  0.00000000E+00  0.00000000E+00  0.00000000E+00
  0.00000000E+00  0.00000000E+00  0.00000000E+00
  0.00000000E+00  0.00000000E+00  0.00000000E+00
  0.00000000E+00  0.00000000E+00  0.00000000E+00
  0.00000000E+00  0.00000000E+00  0.00000000E+00
  0.00000000E+00  0.00000000E+00  0.00000000E+00
  0.00000000E+00  0.00000000E+00  0.00000000E+00
  0.00000000E+00  0.00000000E+00  0.00000000E+00
  0.00000000E+00  0.00000000E+00  0.00000000E+00
  0.00000000E+00  0.00000000E+00  0.00000000E+00
  0.00000000E+00  0.00000000E+00  0.00000000E+00
  0.00000000E+00  0.00000000E+00  0.00000000E+00
  0.00000000E+00  0.00000000E+00  0.00000000E+00
  0.00000000E+00  0.00000000E+00  0.00000000E+00
  0.00000000E+00  0.00000000E+00  0.00000000E+00
  0.00000000E+00  0.00000000E+00  0.00000000E+00
  0.00000000E+00  0.00000000E+00  0.00000000E+00
  0.00000000E+00  0.00000000E+00  0.00000000E+00
  0.00000000E+00  0.00000000E+00  0.00000000E+00
  0.00000000E+00  0.00000000E+00  0.00000000E+00
  0.00000000E+00  0.00000000E+00  0.00000000E+00
  0.00000000E+00  0.00000000E+00  0.00000000E+00
  0.00000000E+00  0.00000000E+00  0.00000000E+00
