FeNiCoPd_sqsbcc64_Config02              
   3.00000000000000     
     2.2981752365828960    1.7301963512957079   -1.9304736518939614
    -2.1975447399616987   -1.7398672864309150   -1.8359912668085601
    -2.3013394401643215    1.7385831340572446    1.9412749900106747
   Fe   Ni   Co   Pd
    16    16    16    16
Direct
 -0.0352840454416021  0.7515677873630989  0.7762731223056761
  0.0106644788152783  0.2493379473758817  0.7400724207082169
  0.2729296882855572 -0.0002662397256529  0.7105523648052605
  0.0111342853719751  0.2466453198523034  0.4924404171135117
  0.2125071246434947  0.7391812871917475  0.5247005909223335
 -0.0234104644799734  0.7639502561424671  0.2888043681140366
  0.7130817712057606  0.7562035655207326  0.7790373750745418
  0.4594253384898210  0.7358463521193290  0.5265256692282287
  0.5272326370788363  0.0013167458425784  0.4700160327431392
  0.2317008662125842  0.4914156180996803  0.2538596480124124
  0.2625245681658337  0.2488134440341916  0.2437834295913623
  0.0094888354134649  0.2517689571117084 -0.0173196825737049
  0.5044758579148212  0.2538490248081727  0.2482132483954964
  0.5307414956072773 -0.0113175366773797  0.2119599161896347
  0.2645179299999705  0.2612813271918328 -0.0093973408400522
  0.5070672842387622  0.2550208628855337 -0.0134410521047736
 -0.0042057592088746  0.4978697017027339  0.7651810026609341
  0.2549098519699329  0.2474703277926781  0.7457798552278990
  0.0036114803021359  0.5063540982882005  0.2685602056069332
  0.0252947403589882  0.0011214813278788  0.2184660228331155
  0.7774664438882066 -0.0021954286021771  0.7083527736607094
  0.4895519451718276  0.5011094152931126  0.5036705642144412
  0.2220303099721024  0.7488765578544563  0.2874747307986825
  0.2941343342468852  0.0025728506340706  0.2295643088077793
  0.0061903952126842  0.5033155051773420  0.0145107128243671
  0.4831042912132423  0.4963003738873977  0.2610190219608572
  0.2204891957885953  0.7474388291085722  0.0331020528654680
  0.7187033396907396  0.7557393339342844  0.2798538976754745
  0.7829905549094194 -0.0035360959431419  0.2203658334668358
  0.5345946316060297 -0.0054503891023491 -0.0301763019102447
  0.7196582396642217  0.7574059843535536  0.0377176528188982
  0.7782823577438530 -0.0053785336024807 -0.0269497516738569
  0.0252153844681749  0.0067219489773944  0.7152010363072732
  0.2327896756386852  0.4927985675541453  0.7581319805476371
  0.0012037780402326  0.4993474730677437  0.5149778016378396
  0.0263272986364807  0.0022513612172328  0.4664826341545453
  0.4694843924564759  0.7485923246144225  0.7829748158745480
  0.2363609704229564  0.5017103461218773  0.5084839511897236
  0.2690234432437040 -0.0097673751410902  0.4563961597137372
  0.0160320078027494  0.2509323710836404  0.2353956245230800
  0.7707892752557536  0.2511775697955397  0.7424882076784611
  0.5083068589401143  0.2499044398721051  0.4838597298960932
  0.7172487664053309  0.7515537504455437  0.5379921250174738
  0.7326985163188923  0.5024476614559954  0.5085806291318381
  0.7898468974349325 -0.0041767851733318  0.4716891461246845
  0.2410127291672506  0.5037684023448428  0.0029534327037945
  0.4740703758823469  0.7477098069947768  0.0298917806774512
  0.4825134174343088  0.5059939670511445  0.0114960094336196
  0.2223925082541148  0.7456453934524034  0.7842341661891445
 -0.0330673696179841  0.7554553354998355  0.5325716334290617
  0.4856078162724403  0.5063095618480755  0.7617303357567377
  0.5029151262422793  0.2405287208224314  0.7322748687321945
  0.5261337303056591 -0.0138973258244589  0.7123775661859570
  0.2521848909449270  0.2460748510325546  0.4816649462172671
  0.7445277797125019  0.5010666825624428  0.7548544566943459
 -0.0177106529964047  0.7598101992012204  0.0402976897299177
  0.0294096131259970  0.0080837396209159 -0.0325039897624828
  0.7601251601290379  0.2488915367756127  0.4935912381142687
  0.4696577898729608  0.7476644341749654  0.2831382905716536
  0.2890531010634468  0.0076753925773001 -0.0269207472004589
  0.7317570900508333  0.4984023197325139  0.2622658245753827
  0.7603708654846129  0.2447689993218546  0.2391594599912120
  0.7468663922096830  0.5074409052468969  0.0194449756465035
  0.7712483673456503  0.2514846924330912 -0.0077488890061189
 
  0.00000000E+00  0.00000000E+00  0.00000000E+00
  0.00000000E+00  0.00000000E+00  0.00000000E+00
  0.00000000E+00  0.00000000E+00  0.00000000E+00
  0.00000000E+00  0.00000000E+00  0.00000000E+00
  0.00000000E+00  0.00000000E+00  0.00000000E+00
  0.00000000E+00  0.00000000E+00  0.00000000E+00
  0.00000000E+00  0.00000000E+00  0.00000000E+00
  0.00000000E+00  0.00000000E+00  0.00000000E+00
  0.00000000E+00  0.00000000E+00  0.00000000E+00
  0.00000000E+00  0.00000000E+00  0.00000000E+00
  0.00000000E+00  0.00000000E+00  0.00000000E+00
  0.00000000E+00  0.00000000E+00  0.00000000E+00
  0.00000000E+00  0.00000000E+00  0.00000000E+00
  0.00000000E+00  0.00000000E+00  0.00000000E+00
  0.00000000E+00  0.00000000E+00  0.00000000E+00
  0.00000000E+00  0.00000000E+00  0.00000000E+00
  0.00000000E+00  0.00000000E+00  0.00000000E+00
  0.00000000E+00  0.00000000E+00  0.00000000E+00
  0.00000000E+00  0.00000000E+00  0.00000000E+00
  0.00000000E+00  0.00000000E+00  0.00000000E+00
  0.00000000E+00  0.00000000E+00  0.00000000E+00
  0.00000000E+00  0.00000000E+00  0.00000000E+00
  0.00000000E+00  0.00000000E+00  0.00000000E+00
  0.00000000E+00  0.00000000E+00  0.00000000E+00
  0.00000000E+00  0.00000000E+00  0.00000000E+00
  0.00000000E+00  0.00000000E+00  0.00000000E+00
  0.00000000E+00  0.00000000E+00  0.00000000E+00
  0.00000000E+00  0.00000000E+00  0.00000000E+00
  0.00000000E+00  0.00000000E+00  0.00000000E+00
  0.00000000E+00  0.00000000E+00  0.00000000E+00
  0.00000000E+00  0.00000000E+00  0.00000000E+00
  0.00000000E+00  0.00000000E+00  0.00000000E+00
  0.00000000E+00  0.00000000E+00  0.00000000E+00
  0.00000000E+00  0.00000000E+00  0.00000000E+00
  0.00000000E+00  0.00000000E+00  0.00000000E+00
  0.00000000E+00  0.00000000E+00  0.00000000E+00
  0.00000000E+00  0.00000000E+00  0.00000000E+00
  0.00000000E+00  0.00000000E+00  0.00000000E+00
  0.00000000E+00  0.00000000E+00  0.00000000E+00
  0.00000000E+00  0.00000000E+00  0.00000000E+00
  0.00000000E+00  0.00000000E+00  0.00000000E+00
  0.00000000E+00  0.00000000E+00  0.00000000E+00
  0.00000000E+00  0.00000000E+00  0.00000000E+00
  0.00000000E+00  0.00000000E+00  0.00000000E+00
  0.00000000E+00  0.00000000E+00  0.00000000E+00
  0.00000000E+00  0.00000000E+00  0.00000000E+00
  0.00000000E+00  0.00000000E+00  0.00000000E+00
  0.00000000E+00  0.00000000E+00  0.00000000E+00
  0.00000000E+00  0.00000000E+00  0.00000000E+00
  0.00000000E+00  0.00000000E+00  0.00000000E+00
  0.00000000E+00  0.00000000E+00  0.00000000E+00
  0.00000000E+00  0.00000000E+00  0.00000000E+00
  0.00000000E+00  0.00000000E+00  0.00000000E+00
  0.00000000E+00  0.00000000E+00  0.00000000E+00
  0.00000000E+00  0.00000000E+00  0.00000000E+00
  0.00000000E+00  0.00000000E+00  0.00000000E+00
  0.00000000E+00  0.00000000E+00  0.00000000E+00
  0.00000000E+00  0.00000000E+00  0.00000000E+00
  0.00000000E+00  0.00000000E+00  0.00000000E+00
  0.00000000E+00  0.00000000E+00  0.00000000E+00
  0.00000000E+00  0.00000000E+00  0.00000000E+00
  0.00000000E+00  0.00000000E+00  0.00000000E+00
  0.00000000E+00  0.00000000E+00  0.00000000E+00
  0.00000000E+00  0.00000000E+00  0.00000000E+00
