FeNiCrPd_SQSfcc64_12_Ni28               
   3.80000000000000     
    -1.9133311738186676    1.4460036052557981    0.4817783934881132
     1.9161959283407781    1.4482541781491045    0.4865844703637520
    -0.0026988749172046    0.4782653169771673   -2.4085806933646223
   Fe   Ni   Cr   Pd
    12    28    12    12
Direct
  0.9453240133475592  0.4365485726465073  0.8762932344936708
  0.4677971416879715  0.2167024834987698  0.9392351438930711
  0.7171968982064283  0.9728441033192561  0.9334217928341318
  0.7910560069140709  0.0342384385259306  0.5660097860211515
  0.2257620089642403  0.4701868790018152  0.9401511553428027
  0.8999477116225527  0.6556714711218746  0.3270241763960685
  0.9302347157697921  0.9385622062723977  0.3828147520196126
  0.5584316713513179  0.0610127882721002  0.1213096642861814
  0.5951207932712426  0.3507682089120891  0.1854442839579063
  0.0300199229107886  0.7801907826223883  0.5628694032649110
  0.1698744427345847  0.4157081883082372  0.3183829907055917
  0.0762024701682843  0.5637098060051707  0.1218714634772972
  0.9072559664336454  0.1560006802055101  0.8147009833095887
  0.6286448159898138  0.1236915446239245  0.7548984652830257
  0.6959336182422450  0.6946939420886551  0.8787882151035561
  0.9701099414676770  0.2184459381323799  0.4432754549134355
  0.1847745876251260  0.1821549178813605  0.8791718894799194
  0.3462576790215913  0.0993463670164042  0.6964849909845410
  0.4305007645245481  0.9417802933142376  0.8750964969214734
  0.5272932642665320  0.2789765379331846  0.5598930389522411
  0.7146847129706595  0.4595042733267867  0.4348749399307389
  0.7488718678120946  0.7542475719310117  0.4939606309945794
  0.1291198605003714  0.6216692643560850  0.7528434004888453
  0.1514645062091855  0.9046837723245197  0.8080664469882911
  0.2760573670904798  0.5336164966059104  0.5638163655057147
  0.3038372548419429  0.8059214444594210  0.6281937836304685
  0.4390928630529471  0.4367803016392548  0.3647457308654294
  0.4614452807428532  0.7167297270808977  0.4289245144218023
  0.6234874323638077  0.6251381882688481  0.2567660898072761
  0.6552773642988116  0.9041170711685450  0.3177924875937143
  0.7489252317643817  0.2457796251558636  0.9987175680057707
  0.8117430157807423  0.8107452279987148  0.1298484193143772
  0.0071682071069205  0.4984294442346014  0.5041293395607815
  0.1861780687788270  0.6813957097643270  0.3767917160777700
  0.3181880871264240  0.3158171475210220  0.1186235104027015
  0.3411429484566642  0.5912145114854723  0.1877202728600794
  0.3754700080441435  0.8776876214593055  0.2446092564025741
  0.4942627290452246  0.4970562946400546  0.0022001903850334
  0.9950096294788267  0.9912365802262120  0.9878729793081789
  0.2505864365842455  0.7488054554158263  0.9955236202378399
  0.9810434080145315  0.7144909259115563  0.9376656859117083
  0.8212427657384332  0.3072503427710596  0.6288905860620140
  0.8724004168456259  0.8802905254608483  0.7459112155918404
  0.3630536002996926  0.3654687771870213  0.7600439274665857
  0.3979620325766356  0.6571566072190204  0.8140583207776826
  0.6755533198570695  0.1877850369466092  0.3610800296407150
  0.0642001275033780  0.0722827101524556  0.6323097872455431
  0.1019073847499345  0.3392572047640306  0.6842327065131408
  0.2538513776707700  0.2624327242176333  0.4947025153632554
  0.4093656989562575  0.1621584333079124  0.3117662179276065
  0.2725940277854542  0.0237620632731401  0.0517686162491909
  0.0356964269670571  0.2893485618844929  0.0522092192427603
  0.6532717653947605  0.3992604294204741  0.8140144057228298
  0.8483340719863688  0.5979792920421559  0.6847932265172617
  0.5031666522823339  0.0033036807776413  0.4987331834123651
  0.5500532854837550  0.5555976381803854  0.6192944353769042
  0.5921356737839110  0.8431166524172022  0.6898891002799860
  0.8375108789899463  0.0854469497349876  0.1838595411432199
  0.8852860469622809  0.3775077853718307  0.2554455106883923
  0.7864299934945311  0.5388531150344660  0.0668129406052874
  0.1278434040431930  0.1354693063398633  0.2431582401442547
  0.2154706472164807  0.9710917224044595  0.4471906615848876
  0.5326946250669149  0.7808324481104034  0.0614889412302540
  0.0891810617611229  0.8380471883054474  0.1875223408801744
 
  0.00000000E+00  0.00000000E+00  0.00000000E+00
  0.00000000E+00  0.00000000E+00  0.00000000E+00
  0.00000000E+00  0.00000000E+00  0.00000000E+00
  0.00000000E+00  0.00000000E+00  0.00000000E+00
  0.00000000E+00  0.00000000E+00  0.00000000E+00
  0.00000000E+00  0.00000000E+00  0.00000000E+00
  0.00000000E+00  0.00000000E+00  0.00000000E+00
  0.00000000E+00  0.00000000E+00  0.00000000E+00
  0.00000000E+00  0.00000000E+00  0.00000000E+00
  0.00000000E+00  0.00000000E+00  0.00000000E+00
  0.00000000E+00  0.00000000E+00  0.00000000E+00
  0.00000000E+00  0.00000000E+00  0.00000000E+00
  0.00000000E+00  0.00000000E+00  0.00000000E+00
  0.00000000E+00  0.00000000E+00  0.00000000E+00
  0.00000000E+00  0.00000000E+00  0.00000000E+00
  0.00000000E+00  0.00000000E+00  0.00000000E+00
  0.00000000E+00  0.00000000E+00  0.00000000E+00
  0.00000000E+00  0.00000000E+00  0.00000000E+00
  0.00000000E+00  0.00000000E+00  0.00000000E+00
  0.00000000E+00  0.00000000E+00  0.00000000E+00
  0.00000000E+00  0.00000000E+00  0.00000000E+00
  0.00000000E+00  0.00000000E+00  0.00000000E+00
  0.00000000E+00  0.00000000E+00  0.00000000E+00
  0.00000000E+00  0.00000000E+00  0.00000000E+00
  0.00000000E+00  0.00000000E+00  0.00000000E+00
  0.00000000E+00  0.00000000E+00  0.00000000E+00
  0.00000000E+00  0.00000000E+00  0.00000000E+00
  0.00000000E+00  0.00000000E+00  0.00000000E+00
  0.00000000E+00  0.00000000E+00  0.00000000E+00
  0.00000000E+00  0.00000000E+00  0.00000000E+00
  0.00000000E+00  0.00000000E+00  0.00000000E+00
  0.00000000E+00  0.00000000E+00  0.00000000E+00
  0.00000000E+00  0.00000000E+00  0.00000000E+00
  0.00000000E+00  0.00000000E+00  0.00000000E+00
  0.00000000E+00  0.00000000E+00  0.00000000E+00
  0.00000000E+00  0.00000000E+00  0.00000000E+00
  0.00000000E+00  0.00000000E+00  0.00000000E+00
  0.00000000E+00  0.00000000E+00  0.00000000E+00
  0.00000000E+00  0.00000000E+00  0.00000000E+00
  0.00000000E+00  0.00000000E+00  0.00000000E+00
  0.00000000E+00  0.00000000E+00  0.00000000E+00
  0.00000000E+00  0.00000000E+00  0.00000000E+00
  0.00000000E+00  0.00000000E+00  0.00000000E+00
  0.00000000E+00  0.00000000E+00  0.00000000E+00
  0.00000000E+00  0.00000000E+00  0.00000000E+00
  0.00000000E+00  0.00000000E+00  0.00000000E+00
  0.00000000E+00  0.00000000E+00  0.00000000E+00
  0.00000000E+00  0.00000000E+00  0.00000000E+00
  0.00000000E+00  0.00000000E+00  0.00000000E+00
  0.00000000E+00  0.00000000E+00  0.00000000E+00
  0.00000000E+00  0.00000000E+00  0.00000000E+00
  0.00000000E+00  0.00000000E+00  0.00000000E+00
  0.00000000E+00  0.00000000E+00  0.00000000E+00
  0.00000000E+00  0.00000000E+00  0.00000000E+00
  0.00000000E+00  0.00000000E+00  0.00000000E+00
  0.00000000E+00  0.00000000E+00  0.00000000E+00
  0.00000000E+00  0.00000000E+00  0.00000000E+00
  0.00000000E+00  0.00000000E+00  0.00000000E+00
  0.00000000E+00  0.00000000E+00  0.00000000E+00
  0.00000000E+00  0.00000000E+00  0.00000000E+00
  0.00000000E+00  0.00000000E+00  0.00000000E+00
  0.00000000E+00  0.00000000E+00  0.00000000E+00
  0.00000000E+00  0.00000000E+00  0.00000000E+00
  0.00000000E+00  0.00000000E+00  0.00000000E+00
