FeNiCoPd_SQSfcc64_12_Fe28               
   3.80000000000000     
    -1.9199142781056713    1.4446529422152574    0.4798631197095213
     1.9235408686248721    1.4495223558952164    0.4798423758535225
     0.0006473020728977    0.4851252805881975   -2.4075543224974973
   Fe   Ni   Co   Pd
    28    12    12    12
Direct
  0.9067330548878968  0.1601480785729689  0.8043152491103580
  0.6306193863497450  0.1260639230639482  0.7478210355141572
  0.6936056710343546  0.6954693209990952  0.8757986312633567
  0.9745792312307507  0.2145377009407654  0.4511992456695342
  0.1885971009045573  0.1910385654610497  0.8753512320906305
  0.3454280601101405  0.1020452880645560  0.6947293268848538
  0.4394142804949903  0.9467529659180202  0.8810837252710633
  0.5243014364288320  0.2825167080841796  0.5593765947712653
  0.7143707591427699  0.4610417628991751  0.4341357620335123
  0.7576714554204336  0.7551295555348831  0.4988022984791587
  0.1244124955475722  0.6175717483793307  0.7538707813020308
  0.1539999075943276  0.9039609596564007  0.8081374984541324
  0.2734165815802250  0.5196129281577720  0.5614461110039937
  0.3098463969629756  0.8033476774281811  0.6323901006898065
  0.4299447492773853  0.4295697905139282  0.3621638622612820
  0.4613894001705325  0.7166416517764821  0.4296999101489588
  0.6212361483300942  0.6222153007690104  0.2543297266454621
  0.6589087206598654  0.9104728329895879  0.3175519172881482
  0.7489832579411456  0.2445792589969699  0.9980273018027809
  0.8134960132161918  0.8132245046879027  0.1329727958856477
  0.0050499496383616  0.5005148544064448  0.5037998805937413
  0.1837641120232425  0.6790148365424660  0.3753764601273711
  0.3143556783186011  0.3093447180320952  0.1178474955614246
  0.3354475757431149  0.5913349568713949  0.1821398463726500
  0.3737916580425896  0.8812626525371080  0.2444442318960774
  0.4919997217423309  0.4973043086534712  0.9969812074915801
  0.9991100073013743  0.9995949632824355  0.9912080639492089
  0.2449214909211482  0.7457309006199363  0.9910102972382708
  0.9430608427684517  0.4331755347341303  0.8741003922111091
  0.4674280066186252  0.2176688404450035  0.9400206134370704
  0.7244635309767481  0.9740147873544898  0.9369977699148100
  0.7877312709396729  0.0355004455737687  0.5614279518226969
  0.2156797842230088  0.4656601749022343  0.9365153125254910
  0.9041672223877171  0.6570449154099287  0.3227179914371454
  0.9329037904106517  0.9331861689764237  0.3843561387360155
  0.5590765343317420  0.0681770837587398  0.1273658378053241
  0.5903457277304328  0.3400814705868195  0.1863139664655307
  0.0320259907538285  0.7791694694936971  0.5634935192592638
  0.1606361420802430  0.4083528164523914  0.3100954130057237
  0.0699893295082277  0.5578930538564825  0.1193647793332984
  0.9728536859926794  0.7201732324300054  0.9347137879560582
  0.8160732197675523  0.3118147910455587  0.6213679221424404
  0.8842212249207064  0.8833458842460866  0.7541458386512924
  0.3639981674499222  0.3729702593710763  0.7556040294631040
  0.3972743876076784  0.6521887314688311  0.8126484860026312
  0.6850526757017502  0.1956754293642892  0.3791579348449278
  0.0609277988605108  0.0629993922649916  0.6355522678630098
  0.0946029721774525  0.3429465376143039  0.6919983443646479
  0.2527035630530445  0.2554308669543870  0.5046267121296214
  0.4138714392500338  0.1634740802475252  0.3092788628540984
  0.2850702161345601  0.0301752911552496  0.0527406379696890
  0.0366770525246110  0.2839554518968707  0.0518424722616217
  0.6523683715497698  0.3996445277626745  0.8127340376706804
  0.8475215229948193  0.5967264261406792  0.6856501619558555
  0.5029538534072164  0.0035895579237364  0.4986565587390953
  0.5512135640422826  0.5599331023126199  0.6159342232430780
  0.5978373457374839  0.8469264149525019  0.6935518274716975
  0.8400484976980401  0.0902275374055386  0.1885579226996544
  0.8822492848602557  0.3772727630216190  0.2566921104444866
  0.7824300735959782  0.5378787365095729  0.0657063561118409
  0.1316844466570552  0.1326417540239290  0.2464626911413015
  0.2167687520682732  0.9680498311017615  0.4478786912525914
  0.5330112684117561  0.7856547494694293  0.0617969337085717
  0.0916841417916903  0.8363371759330941  0.1839209133040759
 
  0.00000000E+00  0.00000000E+00  0.00000000E+00
  0.00000000E+00  0.00000000E+00  0.00000000E+00
  0.00000000E+00  0.00000000E+00  0.00000000E+00
  0.00000000E+00  0.00000000E+00  0.00000000E+00
  0.00000000E+00  0.00000000E+00  0.00000000E+00
  0.00000000E+00  0.00000000E+00  0.00000000E+00
  0.00000000E+00  0.00000000E+00  0.00000000E+00
  0.00000000E+00  0.00000000E+00  0.00000000E+00
  0.00000000E+00  0.00000000E+00  0.00000000E+00
  0.00000000E+00  0.00000000E+00  0.00000000E+00
  0.00000000E+00  0.00000000E+00  0.00000000E+00
  0.00000000E+00  0.00000000E+00  0.00000000E+00
  0.00000000E+00  0.00000000E+00  0.00000000E+00
  0.00000000E+00  0.00000000E+00  0.00000000E+00
  0.00000000E+00  0.00000000E+00  0.00000000E+00
  0.00000000E+00  0.00000000E+00  0.00000000E+00
  0.00000000E+00  0.00000000E+00  0.00000000E+00
  0.00000000E+00  0.00000000E+00  0.00000000E+00
  0.00000000E+00  0.00000000E+00  0.00000000E+00
  0.00000000E+00  0.00000000E+00  0.00000000E+00
  0.00000000E+00  0.00000000E+00  0.00000000E+00
  0.00000000E+00  0.00000000E+00  0.00000000E+00
  0.00000000E+00  0.00000000E+00  0.00000000E+00
  0.00000000E+00  0.00000000E+00  0.00000000E+00
  0.00000000E+00  0.00000000E+00  0.00000000E+00
  0.00000000E+00  0.00000000E+00  0.00000000E+00
  0.00000000E+00  0.00000000E+00  0.00000000E+00
  0.00000000E+00  0.00000000E+00  0.00000000E+00
  0.00000000E+00  0.00000000E+00  0.00000000E+00
  0.00000000E+00  0.00000000E+00  0.00000000E+00
  0.00000000E+00  0.00000000E+00  0.00000000E+00
  0.00000000E+00  0.00000000E+00  0.00000000E+00
  0.00000000E+00  0.00000000E+00  0.00000000E+00
  0.00000000E+00  0.00000000E+00  0.00000000E+00
  0.00000000E+00  0.00000000E+00  0.00000000E+00
  0.00000000E+00  0.00000000E+00  0.00000000E+00
  0.00000000E+00  0.00000000E+00  0.00000000E+00
  0.00000000E+00  0.00000000E+00  0.00000000E+00
  0.00000000E+00  0.00000000E+00  0.00000000E+00
  0.00000000E+00  0.00000000E+00  0.00000000E+00
  0.00000000E+00  0.00000000E+00  0.00000000E+00
  0.00000000E+00  0.00000000E+00  0.00000000E+00
  0.00000000E+00  0.00000000E+00  0.00000000E+00
  0.00000000E+00  0.00000000E+00  0.00000000E+00
  0.00000000E+00  0.00000000E+00  0.00000000E+00
  0.00000000E+00  0.00000000E+00  0.00000000E+00
  0.00000000E+00  0.00000000E+00  0.00000000E+00
  0.00000000E+00  0.00000000E+00  0.00000000E+00
  0.00000000E+00  0.00000000E+00  0.00000000E+00
  0.00000000E+00  0.00000000E+00  0.00000000E+00
  0.00000000E+00  0.00000000E+00  0.00000000E+00
  0.00000000E+00  0.00000000E+00  0.00000000E+00
  0.00000000E+00  0.00000000E+00  0.00000000E+00
  0.00000000E+00  0.00000000E+00  0.00000000E+00
  0.00000000E+00  0.00000000E+00  0.00000000E+00
  0.00000000E+00  0.00000000E+00  0.00000000E+00
  0.00000000E+00  0.00000000E+00  0.00000000E+00
  0.00000000E+00  0.00000000E+00  0.00000000E+00
  0.00000000E+00  0.00000000E+00  0.00000000E+00
  0.00000000E+00  0.00000000E+00  0.00000000E+00
  0.00000000E+00  0.00000000E+00  0.00000000E+00
  0.00000000E+00  0.00000000E+00  0.00000000E+00
  0.00000000E+00  0.00000000E+00  0.00000000E+00
  0.00000000E+00  0.00000000E+00  0.00000000E+00
