FeNiCoPd_sqsfcc64                       
   3.80000000000000     
     0.4779389730668645   -0.9650038971841856   -2.4260902140568379
     2.4006037704885248   -0.9646545522263672   -0.4831664699707047
    -0.9620938039751431   -2.4151774107293797   -0.4854057983667016
   Fe   Ni   Co   Pd
    16    16    16    16
Direct
  0.8603637909316473  0.0792544282316692  0.6290911829104080
  0.8897213004499248  0.1654548607137417  0.3840479518383823
  0.3799229412871559  0.1253498863274456 -0.0084683632326452
  0.6159173783159293  0.3248790307528643  0.6303263140586000
  0.6710129993058347  0.5116705366586235  0.1193496357374376
  0.4094407077820329  0.2188810575403677  0.7429456853543700
  0.4400807049963954  0.3094105372104415  0.5002532279244590
  0.3014375555970579  0.4012591578125124  0.1248637893423381
  0.0282955438348800  0.1013775335930126  0.7516782705799110
  0.7775405364590448  0.7959959914014222  0.3688908212259922
  0.6020430016380325  0.7697099947943373  0.2348271921122685
  0.3326329039135907  0.4887866860822270  0.8763751958282123
  0.1453685220892714  0.4780983843604857  0.7410919635603269
  0.0162817110063180  0.5530226058254566  0.3774344110228200
  0.6620137677508203  0.9694831284887894  0.7471346158562344
  0.2985153154898564  0.9457702726873924  0.5106724749519523
  0.9189118874994917  0.2694211018474749  0.1201842301424275
  0.7760362642714065  0.3469574406097429  0.7523396581290871
  0.8705218413290424  0.6306906966126290  0.0008694710526577
  0.5776444862214829  0.2377193360090750  0.8712728135408856
  0.4656319899296640  0.4165427702300705  0.2473971199652716
  0.5025838058003618  0.4984961754245164 -0.0040016328621803
  0.2082160555631561  0.1097088735530427  0.8692199818579415
  0.2348323855230818  0.2031811319723940  0.6287792528694575
  0.9687448171300115  0.8960421398090933  0.2556608156205432
  0.8023436185813415  0.8774898392108041  0.1218107878840682
  0.6338373210192417  0.8679736640835197 -0.0061367363234469
  0.2526983171930345  0.7377611625022539 -0.0002910604065313
  0.0499009199311419  0.6428405796368191  0.1262495081383644
  0.2837845243398678  0.8488078389894872  0.7505778031726368
  0.0743110350021967  0.7249125142557858  0.8808411958287056
  0.1334590553860213  0.9180839634640322  0.3807098754400975
  0.6940074854360859  0.0580420984206526  0.5058123707476319
  0.7438549862360363  0.2525603795821546 -0.0056350728692925
  0.9797400109518895  0.4518268640796921  0.6262131081251546
  0.8097308466557356  0.4340833354433760  0.5118115914480778
  0.8451812334304096  0.5447497640119016  0.2472912031950343
  0.0503873521356603  0.1913945533611783  0.5128016572421342
  0.9042349310565823  0.7162542906819016  0.7541089272053260
  0.9437816371240146  0.8112955290313747  0.4944547596677580
  0.7016350089380481  0.6116929585524585  0.8811059709412057
  0.5374380113846630  0.5849949189523160  0.7539964789304842
  0.3883435282031271  0.6749470352795098  0.3652337754842254
  0.4264269830500511  0.7492756755689002  0.1267953406069369
  0.1842433636723150  0.5692543202791283  0.4951177857353697
  0.2183420154309997  0.6576260561769853  0.2475955015179775
  0.8197098481829433  0.9853031412787758  0.8694843355308512
  0.4793759239388549  0.9659840598839698  0.6367800832737934
  0.7247934669738983  0.1529076303800737  0.2505554026132332
  0.5203584053915299  0.0334100753545214  0.3823074521404731
  0.5490963883116357  0.1400035783365609  0.1156910006113653
  0.3429242247666249  0.0187053689932176  0.2511499200911076
  0.1625371453176676  0.0116104483157597  0.1279613510892647
  0.0009791371825877 -0.0078796000166324 -0.0125386903773520
  0.9495773869145728  0.3617424197589941  0.8723693704695011
  0.6487516021129109  0.4243183369908548  0.3713696608129083
  0.2603614406193196  0.3048226956467141  0.3831557056856565
  0.0809658767294063  0.2901907624045064  0.2552527896539393
  0.1310042524724871  0.3812703575160351 -0.0067427338242635
  0.7419152370686464  0.7019348917883633  0.6240568686218267
  0.5593883091992428  0.7013512433598070  0.4975208665315007
  0.3595032539310749  0.5740154239422052  0.6301220541095454
  0.4532743346634067  0.8566398915712725  0.8777891792788883
  0.1040893669492337  0.8306381743819423  0.6310145325886830
 
  0.00000000E+00  0.00000000E+00  0.00000000E+00
  0.00000000E+00  0.00000000E+00  0.00000000E+00
  0.00000000E+00  0.00000000E+00  0.00000000E+00
  0.00000000E+00  0.00000000E+00  0.00000000E+00
  0.00000000E+00  0.00000000E+00  0.00000000E+00
  0.00000000E+00  0.00000000E+00  0.00000000E+00
  0.00000000E+00  0.00000000E+00  0.00000000E+00
  0.00000000E+00  0.00000000E+00  0.00000000E+00
  0.00000000E+00  0.00000000E+00  0.00000000E+00
  0.00000000E+00  0.00000000E+00  0.00000000E+00
  0.00000000E+00  0.00000000E+00  0.00000000E+00
  0.00000000E+00  0.00000000E+00  0.00000000E+00
  0.00000000E+00  0.00000000E+00  0.00000000E+00
  0.00000000E+00  0.00000000E+00  0.00000000E+00
  0.00000000E+00  0.00000000E+00  0.00000000E+00
  0.00000000E+00  0.00000000E+00  0.00000000E+00
  0.00000000E+00  0.00000000E+00  0.00000000E+00
  0.00000000E+00  0.00000000E+00  0.00000000E+00
  0.00000000E+00  0.00000000E+00  0.00000000E+00
  0.00000000E+00  0.00000000E+00  0.00000000E+00
  0.00000000E+00  0.00000000E+00  0.00000000E+00
  0.00000000E+00  0.00000000E+00  0.00000000E+00
  0.00000000E+00  0.00000000E+00  0.00000000E+00
  0.00000000E+00  0.00000000E+00  0.00000000E+00
  0.00000000E+00  0.00000000E+00  0.00000000E+00
  0.00000000E+00  0.00000000E+00  0.00000000E+00
  0.00000000E+00  0.00000000E+00  0.00000000E+00
  0.00000000E+00  0.00000000E+00  0.00000000E+00
  0.00000000E+00  0.00000000E+00  0.00000000E+00
  0.00000000E+00  0.00000000E+00  0.00000000E+00
  0.00000000E+00  0.00000000E+00  0.00000000E+00
  0.00000000E+00  0.00000000E+00  0.00000000E+00
  0.00000000E+00  0.00000000E+00  0.00000000E+00
  0.00000000E+00  0.00000000E+00  0.00000000E+00
  0.00000000E+00  0.00000000E+00  0.00000000E+00
  0.00000000E+00  0.00000000E+00  0.00000000E+00
  0.00000000E+00  0.00000000E+00  0.00000000E+00
  0.00000000E+00  0.00000000E+00  0.00000000E+00
  0.00000000E+00  0.00000000E+00  0.00000000E+00
  0.00000000E+00  0.00000000E+00  0.00000000E+00
  0.00000000E+00  0.00000000E+00  0.00000000E+00
  0.00000000E+00  0.00000000E+00  0.00000000E+00
  0.00000000E+00  0.00000000E+00  0.00000000E+00
  0.00000000E+00  0.00000000E+00  0.00000000E+00
  0.00000000E+00  0.00000000E+00  0.00000000E+00
  0.00000000E+00  0.00000000E+00  0.00000000E+00
  0.00000000E+00  0.00000000E+00  0.00000000E+00
  0.00000000E+00  0.00000000E+00  0.00000000E+00
  0.00000000E+00  0.00000000E+00  0.00000000E+00
  0.00000000E+00  0.00000000E+00  0.00000000E+00
  0.00000000E+00  0.00000000E+00  0.00000000E+00
  0.00000000E+00  0.00000000E+00  0.00000000E+00
  0.00000000E+00  0.00000000E+00  0.00000000E+00
  0.00000000E+00  0.00000000E+00  0.00000000E+00
  0.00000000E+00  0.00000000E+00  0.00000000E+00
  0.00000000E+00  0.00000000E+00  0.00000000E+00
  0.00000000E+00  0.00000000E+00  0.00000000E+00
  0.00000000E+00  0.00000000E+00  0.00000000E+00
  0.00000000E+00  0.00000000E+00  0.00000000E+00
  0.00000000E+00  0.00000000E+00  0.00000000E+00
  0.00000000E+00  0.00000000E+00  0.00000000E+00
  0.00000000E+00  0.00000000E+00  0.00000000E+00
  0.00000000E+00  0.00000000E+00  0.00000000E+00
  0.00000000E+00  0.00000000E+00  0.00000000E+00
