CrNiCoPd_sqsfcc64                       
   3.80000000000000     
     0.4822773415778238   -0.9607402992058001   -2.4127177666979258
     2.4259516248996200   -0.9600600538675672   -0.4799184395116444
    -0.9729834042608222   -2.4050765636367175   -0.4829196831883059
   Cr   Ni   Co   Pd
    16    16    16    16
Direct
  0.8661440095726974  0.0812795128930354  0.6226207218272565
  0.8775296262334934  0.1685710212670921  0.3980974306463794
  0.3890418726364549  0.1228312290836518  0.9794134665961403
  0.6178550356957365  0.3275408178727859  0.6280981804315172
  0.6673331766671144  0.5255417844622197  0.1246314455730669
  0.4117617842596301  0.2114130540371419  0.7424317333406223
  0.4407652358461758  0.3054323735048426  0.5150978480935677
  0.2967829750853105  0.4040192290526343  0.1289484799786364
  0.0299427795047434  0.0977213417815387  0.7490023329486865
  0.7828584800696107  0.7947878575912111  0.3685237706301713
  0.6039262837989992  0.7674383678261376  0.2338229831641895
  0.3403023248392098  0.4796351950625434  0.8647261255764664
  0.1518096192665531  0.4734659582245091  0.7395302910792582
  0.0208165624266120  0.5517109692742616  0.3687173441499632
  0.6685685185813064  0.9672951459813217  0.7461548590978698
  0.2951009078736910  0.9477087688733802  0.5139154926871621
  0.9177158948999873  0.2687394346936843  0.1182986568566500
  0.7781512252045203  0.3456188524619478  0.7477983874072170
  0.8724927824150365  0.6306785607046030  0.0001130540261169
  0.5852731506886631  0.2337227490601189  0.8653676933882196
  0.4648621497378414  0.4191657380930161  0.2464711721169935
  0.5034618655736690  0.4979850468998653  0.9961621351275949
  0.2049428543496583  0.1105046934041957  0.8721268433989646
  0.2313758294783732  0.2037847317791047  0.6319044761441632
  0.9673697033509978  0.8967469481037899  0.2572174124335939
  0.8010349769265025  0.8787287572343631  0.1236131443572013
  0.6358786666703955  0.8654370402624084  0.9945486287005432
  0.2540531312653771  0.7360394292258011  0.9972347351383999
  0.0484833638330467  0.6437223198792917  0.1236596117426988
  0.2850852177349420  0.8460550460530037  0.7518097206844987
  0.0730150318861035  0.7268292208106436  0.8798686646165337
  0.1340166644994306  0.9211153695523694  0.3808508604790677
  0.6931259509073810  0.0518837682940425  0.5154392592403250
  0.7394945790133128  0.2563190302374030  0.0008505798457390
  0.9797186458774736  0.4532360903229640  0.6245889593184504
  0.8079973663812967  0.4387674502992038  0.5114632155254153
  0.8461873312244237  0.5404219089603373  0.2465494734317929
  0.0503274083252589  0.1901274840028222  0.5100827318673609
  0.9049966770604806  0.7139997938703896  0.7549647264226453
  0.9452145370793048  0.8125395689504843  0.4963645080278269
  0.7006440919966812  0.6114144255824379  0.8810212934080449
  0.5407781703504888  0.5862665949950793  0.7534355296861245
  0.3825884758637134  0.6766391763333761  0.3638594935832905
  0.4223091799171938  0.7512190528251516  0.1230539084854664
  0.1774936109293517  0.5718887155717958  0.4954812383056530
  0.2154688818078168  0.6643777041579637  0.2508551413064244
  0.8169925692530030  0.9839947591522117  0.8701351931973407
  0.4736593104433414  0.9643328096922896  0.6373031537984849
  0.7247456061535515  0.1515748582413904  0.2529830524381336
  0.5195178310636741  0.0350131417827186  0.3847103832970710
  0.5476021960007239  0.1411612464840378  0.1160051704297581
  0.3448862518383862  0.0180442928209305  0.2503611701269366
  0.1606982974820418  0.0132677866370769  0.1290381574865738
 -0.0004054341105100  0.9927164245749054  0.9878864173056270
  0.9468044413199307  0.3628280602042782  0.8729045525078808
  0.6486228883130017  0.4245580913815247  0.3691171297401311
  0.2627010856619155  0.3047635416931608  0.3845119208158230
  0.0799098668223306  0.2879607880440555  0.2568745754604905
  0.1310462387474897  0.3797551628944167  0.9955416391132376
  0.7422755028118464  0.7047176393911971  0.6224041795125699
  0.5606567564248784  0.7010055667790153  0.4948056971882945
  0.3595153370600783  0.5769124303498705  0.6274105954553618
  0.4537689391872755  0.8568299621999279  0.8778241081015552
  0.1029057079209788  0.8301961082669844  0.6313951431307466
 
  0.00000000E+00  0.00000000E+00  0.00000000E+00
  0.00000000E+00  0.00000000E+00  0.00000000E+00
  0.00000000E+00  0.00000000E+00  0.00000000E+00
  0.00000000E+00  0.00000000E+00  0.00000000E+00
  0.00000000E+00  0.00000000E+00  0.00000000E+00
  0.00000000E+00  0.00000000E+00  0.00000000E+00
  0.00000000E+00  0.00000000E+00  0.00000000E+00
  0.00000000E+00  0.00000000E+00  0.00000000E+00
  0.00000000E+00  0.00000000E+00  0.00000000E+00
  0.00000000E+00  0.00000000E+00  0.00000000E+00
  0.00000000E+00  0.00000000E+00  0.00000000E+00
  0.00000000E+00  0.00000000E+00  0.00000000E+00
  0.00000000E+00  0.00000000E+00  0.00000000E+00
  0.00000000E+00  0.00000000E+00  0.00000000E+00
  0.00000000E+00  0.00000000E+00  0.00000000E+00
  0.00000000E+00  0.00000000E+00  0.00000000E+00
  0.00000000E+00  0.00000000E+00  0.00000000E+00
  0.00000000E+00  0.00000000E+00  0.00000000E+00
  0.00000000E+00  0.00000000E+00  0.00000000E+00
  0.00000000E+00  0.00000000E+00  0.00000000E+00
  0.00000000E+00  0.00000000E+00  0.00000000E+00
  0.00000000E+00  0.00000000E+00  0.00000000E+00
  0.00000000E+00  0.00000000E+00  0.00000000E+00
  0.00000000E+00  0.00000000E+00  0.00000000E+00
  0.00000000E+00  0.00000000E+00  0.00000000E+00
  0.00000000E+00  0.00000000E+00  0.00000000E+00
  0.00000000E+00  0.00000000E+00  0.00000000E+00
  0.00000000E+00  0.00000000E+00  0.00000000E+00
  0.00000000E+00  0.00000000E+00  0.00000000E+00
  0.00000000E+00  0.00000000E+00  0.00000000E+00
  0.00000000E+00  0.00000000E+00  0.00000000E+00
  0.00000000E+00  0.00000000E+00  0.00000000E+00
  0.00000000E+00  0.00000000E+00  0.00000000E+00
  0.00000000E+00  0.00000000E+00  0.00000000E+00
  0.00000000E+00  0.00000000E+00  0.00000000E+00
  0.00000000E+00  0.00000000E+00  0.00000000E+00
  0.00000000E+00  0.00000000E+00  0.00000000E+00
  0.00000000E+00  0.00000000E+00  0.00000000E+00
  0.00000000E+00  0.00000000E+00  0.00000000E+00
  0.00000000E+00  0.00000000E+00  0.00000000E+00
  0.00000000E+00  0.00000000E+00  0.00000000E+00
  0.00000000E+00  0.00000000E+00  0.00000000E+00
  0.00000000E+00  0.00000000E+00  0.00000000E+00
  0.00000000E+00  0.00000000E+00  0.00000000E+00
  0.00000000E+00  0.00000000E+00  0.00000000E+00
  0.00000000E+00  0.00000000E+00  0.00000000E+00
  0.00000000E+00  0.00000000E+00  0.00000000E+00
  0.00000000E+00  0.00000000E+00  0.00000000E+00
  0.00000000E+00  0.00000000E+00  0.00000000E+00
  0.00000000E+00  0.00000000E+00  0.00000000E+00
  0.00000000E+00  0.00000000E+00  0.00000000E+00
  0.00000000E+00  0.00000000E+00  0.00000000E+00
  0.00000000E+00  0.00000000E+00  0.00000000E+00
  0.00000000E+00  0.00000000E+00  0.00000000E+00
  0.00000000E+00  0.00000000E+00  0.00000000E+00
  0.00000000E+00  0.00000000E+00  0.00000000E+00
  0.00000000E+00  0.00000000E+00  0.00000000E+00
  0.00000000E+00  0.00000000E+00  0.00000000E+00
  0.00000000E+00  0.00000000E+00  0.00000000E+00
  0.00000000E+00  0.00000000E+00  0.00000000E+00
  0.00000000E+00  0.00000000E+00  0.00000000E+00
  0.00000000E+00  0.00000000E+00  0.00000000E+00
  0.00000000E+00  0.00000000E+00  0.00000000E+00
  0.00000000E+00  0.00000000E+00  0.00000000E+00
