FeNiCoMn_SQSfcc64_12_Ni28               
   3.80000000000000     
    -1.8755461143828138    1.4263077472882235    0.4621879224374585
     1.8774872899402451    1.4252339784059262    0.4731154210438346
    -0.0069578961009629    0.4763578098075884   -2.3415455059039627
   Fe   Ni   Co   Mn
    12    28    12    12
Direct
  0.9416343692583222  0.4338035575607186  0.8741389222492743
  0.4605232710113488  0.2102480205970020  0.9388419672496179
  0.7221530841131398  0.9733942560549538  0.9327517671864980
  0.7911855808697198  0.0373516704119816  0.5642483084799838
  0.2280323391141226  0.4680661758150167  0.9366336084409509
  0.9066023004842351  0.6560770725508925  0.3211951448302503
  0.9364012441015774  0.9353628066285297  0.3804138598496070
  0.5548767809144651  0.0606820275272677  0.1356215461529099
  0.5877084470923623  0.3411209384742045  0.1924986556761680
  0.0356501955337204  0.7860574060587445  0.5692710391353119
  0.1633791875015645  0.4149192844295156  0.3179168240191790
  0.0689647915749517  0.5641711800057454  0.1241022744035661
  0.9033277975232505  0.1581708629839365  0.8123353535321201
  0.6262834472523918  0.1226627419657415  0.7491875226670619
  0.6878007357955805  0.6846246857585132  0.8699914086408358
  0.9742210759572789  0.2193931958838121  0.4421805573921340
  0.1844819230787651  0.1879422208638803  0.8778798229587841
  0.3466557886907887  0.0924918792035777  0.6874856125307891
  0.4389993685057170  0.9352814815948065  0.8760813950931071
  0.5284894840863416  0.2802504577983575  0.5587515489214478
  0.7187397063813178  0.4669139573971968  0.4371998517355443
  0.7451428409336385  0.7489124450714917  0.5001496500522781
  0.1273252699654417  0.6249391510851096  0.7532381846576989
  0.1582981039142604  0.9074837634937495  0.8134130073800466
  0.2769551957511865  0.5334596632811787  0.5666139984337599
  0.3144520736134517  0.8120457444972737  0.6272211692049222
  0.4330659938383285  0.4370395437338023  0.3698145338850564
  0.4661590370477641  0.7202324073840227  0.4369828873285572
  0.6274039445279052  0.6230897472212802  0.2552732902540251
  0.6585602905907685  0.9017733917604024  0.3140324215717160
  0.7477219847460822  0.2499957751178451  0.9994999171761481
  0.8145533765857742  0.8144347443544212  0.1213424370601840
  0.0025758468483673  0.5003411264360458  0.5044463711581750
  0.1866179412612492  0.6882404096176986  0.3782152654811458
  0.3108393796093250  0.3148815482395199  0.1230906453030439
  0.3426729866490671  0.5933722515727589  0.1873959193558699
  0.3693606349765938  0.8708627424394434  0.2474972211587113
  0.5004354598254549  0.4947904912305469  0.9993335330926809
  0.0002755441465187  0.0048967955514236  0.9962830326080553
  0.2503254141172522  0.7495689446833506  0.9943908647741202
  0.9714956422720631  0.7226431123992534  0.9300018621780629
  0.8138677502938465  0.3128229984507033  0.6202489535807320
  0.8815226541985133  0.8807899142191328  0.7510184289725798
  0.3652346819316074  0.3676795479493149  0.7482622287256920
  0.4041138386588284  0.6494681039532794  0.8099892197939714
  0.6895461372661874  0.1892065250474720  0.3798480216148094
  0.0681300147749416  0.0695900311320758  0.6309038972667527
  0.0919023986552457  0.3444909476915644  0.6864557809619174
  0.2536769703797496  0.2558789242975304  0.5041513327707388
  0.4020669631307980  0.1607130356312704  0.3124193926977126
  0.2832545915245648  0.0303422121650251  0.0603300025023319
  0.0296441007698710  0.2854569234568468  0.0560881034653174
  0.6485593766254083  0.3968449183927271  0.8094548475311436
  0.8441872125807578  0.5965654867259897  0.6841937400498808
  0.5053275575311721  0.0036156265945002  0.4919813978569529
  0.5491690113695680  0.5538058766960472  0.6153271848906264
  0.5929755673879081  0.8408053711559933  0.6884534825299432
  0.8387940657221049  0.0871999329940877  0.1878251026153989
  0.8770022428228158  0.3714825433415237  0.2555904093067201
  0.7812663494133189  0.5392998544031581  0.0625763671485151
  0.1256697875334686  0.1339508039764550  0.2466615675759666
  0.2212343168801882  0.9710755665571774  0.4395263543765628
  0.5321323235891595  0.7724992320624313  0.0625704693064294
  0.0903742068985082  0.8444259443706741  0.1791605111999212
 
  0.00000000E+00  0.00000000E+00  0.00000000E+00
  0.00000000E+00  0.00000000E+00  0.00000000E+00
  0.00000000E+00  0.00000000E+00  0.00000000E+00
  0.00000000E+00  0.00000000E+00  0.00000000E+00
  0.00000000E+00  0.00000000E+00  0.00000000E+00
  0.00000000E+00  0.00000000E+00  0.00000000E+00
  0.00000000E+00  0.00000000E+00  0.00000000E+00
  0.00000000E+00  0.00000000E+00  0.00000000E+00
  0.00000000E+00  0.00000000E+00  0.00000000E+00
  0.00000000E+00  0.00000000E+00  0.00000000E+00
  0.00000000E+00  0.00000000E+00  0.00000000E+00
  0.00000000E+00  0.00000000E+00  0.00000000E+00
  0.00000000E+00  0.00000000E+00  0.00000000E+00
  0.00000000E+00  0.00000000E+00  0.00000000E+00
  0.00000000E+00  0.00000000E+00  0.00000000E+00
  0.00000000E+00  0.00000000E+00  0.00000000E+00
  0.00000000E+00  0.00000000E+00  0.00000000E+00
  0.00000000E+00  0.00000000E+00  0.00000000E+00
  0.00000000E+00  0.00000000E+00  0.00000000E+00
  0.00000000E+00  0.00000000E+00  0.00000000E+00
  0.00000000E+00  0.00000000E+00  0.00000000E+00
  0.00000000E+00  0.00000000E+00  0.00000000E+00
  0.00000000E+00  0.00000000E+00  0.00000000E+00
  0.00000000E+00  0.00000000E+00  0.00000000E+00
  0.00000000E+00  0.00000000E+00  0.00000000E+00
  0.00000000E+00  0.00000000E+00  0.00000000E+00
  0.00000000E+00  0.00000000E+00  0.00000000E+00
  0.00000000E+00  0.00000000E+00  0.00000000E+00
  0.00000000E+00  0.00000000E+00  0.00000000E+00
  0.00000000E+00  0.00000000E+00  0.00000000E+00
  0.00000000E+00  0.00000000E+00  0.00000000E+00
  0.00000000E+00  0.00000000E+00  0.00000000E+00
  0.00000000E+00  0.00000000E+00  0.00000000E+00
  0.00000000E+00  0.00000000E+00  0.00000000E+00
  0.00000000E+00  0.00000000E+00  0.00000000E+00
  0.00000000E+00  0.00000000E+00  0.00000000E+00
  0.00000000E+00  0.00000000E+00  0.00000000E+00
  0.00000000E+00  0.00000000E+00  0.00000000E+00
  0.00000000E+00  0.00000000E+00  0.00000000E+00
  0.00000000E+00  0.00000000E+00  0.00000000E+00
  0.00000000E+00  0.00000000E+00  0.00000000E+00
  0.00000000E+00  0.00000000E+00  0.00000000E+00
  0.00000000E+00  0.00000000E+00  0.00000000E+00
  0.00000000E+00  0.00000000E+00  0.00000000E+00
  0.00000000E+00  0.00000000E+00  0.00000000E+00
  0.00000000E+00  0.00000000E+00  0.00000000E+00
  0.00000000E+00  0.00000000E+00  0.00000000E+00
  0.00000000E+00  0.00000000E+00  0.00000000E+00
  0.00000000E+00  0.00000000E+00  0.00000000E+00
  0.00000000E+00  0.00000000E+00  0.00000000E+00
  0.00000000E+00  0.00000000E+00  0.00000000E+00
  0.00000000E+00  0.00000000E+00  0.00000000E+00
  0.00000000E+00  0.00000000E+00  0.00000000E+00
  0.00000000E+00  0.00000000E+00  0.00000000E+00
  0.00000000E+00  0.00000000E+00  0.00000000E+00
  0.00000000E+00  0.00000000E+00  0.00000000E+00
  0.00000000E+00  0.00000000E+00  0.00000000E+00
  0.00000000E+00  0.00000000E+00  0.00000000E+00
  0.00000000E+00  0.00000000E+00  0.00000000E+00
  0.00000000E+00  0.00000000E+00  0.00000000E+00
  0.00000000E+00  0.00000000E+00  0.00000000E+00
  0.00000000E+00  0.00000000E+00  0.00000000E+00
  0.00000000E+00  0.00000000E+00  0.00000000E+00
  0.00000000E+00  0.00000000E+00  0.00000000E+00
