FeNiCoMn_SQSfcc64_17_13                 
   3.50000000000000     
    -0.0008832871623217   -2.0495543720053515   -1.0172784567936690
    -1.0160897486169380    1.0279244201901214   -2.0417028174522627
     3.0515545746709893    1.0271210199886476   -0.0020417651234810
   Fe   Ni   Co   Mn
    17    17    17    13
Direct
  0.5480575568860445  0.9626519567668822  0.1508766509784231
  0.9368165029169283  0.7789067491545119  0.0966935206459170
  0.2528106725178398  0.8763229084007408  0.6262074046722770
  0.3213096505911409  0.5956706252557337  0.0383726177430225
  0.0584673387056465  0.7127923771524364  0.4019022760784515
 -0.0003804778278414  0.5014914035800500  0.0024033446727099
  0.9333118429995517  0.7842300701619404  0.5932981649426743
  0.1885167122057238  0.6550570070470983  0.7158720751287040
  0.0609008311170962  0.7199812593176326  0.9084142909093018
  0.0103587207808721  0.4976512650784804  0.5032752070421751
  0.9397779964031547  0.2851597296386159  0.0903637067655119
  0.4423954381896054  0.5359635029136266  0.8451231274488729
  0.1263414252242297  0.4400645776406930  0.8134221133879023
  0.1977483060849926  0.1519413150890581  0.2179734984832580
  0.6326673808109515  0.1860501717633760  0.5632727385224947
  0.3104269042277898  0.0920882619871744  0.5279462640532087
 -0.0051694483812184  0.0021888069785154  0.4971739231073967
  0.2452272818237119  0.8713838437607101  0.1235096613763932
  0.1241814163024521  0.9355096063244159  0.3125474876635442
  0.8084695389150141  0.8455811564772008  0.2809480691410253
  0.6885921500281400  0.9068828395456614  0.4686153054788683
  0.5657084577308434  0.9658593600050920  0.6553504723418540
  0.5046493787886066  0.7511537590793046  0.2509019641614130
  0.6870970098889706  0.9055420985572414  0.9699177152164278
  0.8717672568194090  0.5649027914833015  0.1865357881950427
  0.6253135237870475  0.6859821906594232  0.5618015921155195
  0.5666597443927550  0.4717113891143613  0.1558417034327895
  0.5624684606848497  0.4664465673332352  0.6580135138328883
  0.2525346633937375  0.3708497055855842  0.6284498436466970
 -0.0037257362416322 -0.0010509673448021  0.0022573666853611
  0.8173008074093727  0.3455758806868097  0.7843703005700944
  0.3733446405758134  0.3134835418404487  0.9367427625200277
  0.4333026080848514  0.0288115231687521  0.3428132536776579
  0.8719443353131205  0.0655500742549141  0.6892246489892949
  0.6275969027528513  0.6882217685704947  0.0634578465646753
  0.1876063043294474  0.6537301224365587  0.2175880750839525
  0.8052945323537463  0.8449530427198950  0.7835438252223897
  0.7557705168617057  0.6315979960526527  0.3787407365805806
  0.5061773956143282  0.7490947740648937  0.7498908128869282
  0.3762276921614349  0.8127282706731428  0.9345327111485168
  0.2541346627676467  0.3687397967807367  0.1183295391986845
  0.7473393330825969  0.6268656316698660  0.8785814305762271
  0.6854858458751824  0.4109087831884876  0.4696469890258920
  0.4967059369991801  0.2477465319987220  0.2467968815919342
  0.3032971244799786  0.0900878240774373  0.0238885807013833
  0.0648045762500063  0.2189403937557866  0.4080003139355044
  0.9402528284709211  0.2839671204500744  0.5924686443943881
  0.6875005879723672  0.4141164110511106  0.9705725561697391
  0.0600177198337089  0.2246872050179983  0.9088649076857377
  0.7575500411895204  0.1183279730436362  0.8755133688139456
  0.4365183082902193  0.0229527851238348  0.8405050533835797
  0.3801420578895712  0.8092864033900061  0.4350229471945322
  0.1163792128591601  0.9376865881628574  0.8148013263925115
  0.4376136180712853  0.5243985287748364  0.3357223228841349
  0.3208501420673375  0.5926483971817279  0.5337202962879551
  0.1230848458169318  0.4317231265053312  0.3050554649075073
  0.8645899587877128  0.5619964702984812  0.6862023839662055
  0.8160227998055004  0.3552856839321821  0.2869147411608631
  0.6159747375783264  0.1905556660534806  0.0567988931096431
  0.3751963774079463  0.3163017605446378  0.4424190898117460
  0.8768686115622204  0.0652847357077063  0.1902924968618282
  0.7395662274355452  0.1292765661580580  0.3754629549060436
  0.5088747469683024  0.2476671008470135  0.7536040036969478
  0.1833634633157476  0.1578351933101316  0.7226284322288240
 
  0.00000000E+00  0.00000000E+00  0.00000000E+00
  0.00000000E+00  0.00000000E+00  0.00000000E+00
  0.00000000E+00  0.00000000E+00  0.00000000E+00
  0.00000000E+00  0.00000000E+00  0.00000000E+00
  0.00000000E+00  0.00000000E+00  0.00000000E+00
  0.00000000E+00  0.00000000E+00  0.00000000E+00
  0.00000000E+00  0.00000000E+00  0.00000000E+00
  0.00000000E+00  0.00000000E+00  0.00000000E+00
  0.00000000E+00  0.00000000E+00  0.00000000E+00
  0.00000000E+00  0.00000000E+00  0.00000000E+00
  0.00000000E+00  0.00000000E+00  0.00000000E+00
  0.00000000E+00  0.00000000E+00  0.00000000E+00
  0.00000000E+00  0.00000000E+00  0.00000000E+00
  0.00000000E+00  0.00000000E+00  0.00000000E+00
  0.00000000E+00  0.00000000E+00  0.00000000E+00
  0.00000000E+00  0.00000000E+00  0.00000000E+00
  0.00000000E+00  0.00000000E+00  0.00000000E+00
  0.00000000E+00  0.00000000E+00  0.00000000E+00
  0.00000000E+00  0.00000000E+00  0.00000000E+00
  0.00000000E+00  0.00000000E+00  0.00000000E+00
  0.00000000E+00  0.00000000E+00  0.00000000E+00
  0.00000000E+00  0.00000000E+00  0.00000000E+00
  0.00000000E+00  0.00000000E+00  0.00000000E+00
  0.00000000E+00  0.00000000E+00  0.00000000E+00
  0.00000000E+00  0.00000000E+00  0.00000000E+00
  0.00000000E+00  0.00000000E+00  0.00000000E+00
  0.00000000E+00  0.00000000E+00  0.00000000E+00
  0.00000000E+00  0.00000000E+00  0.00000000E+00
  0.00000000E+00  0.00000000E+00  0.00000000E+00
  0.00000000E+00  0.00000000E+00  0.00000000E+00
  0.00000000E+00  0.00000000E+00  0.00000000E+00
  0.00000000E+00  0.00000000E+00  0.00000000E+00
  0.00000000E+00  0.00000000E+00  0.00000000E+00
  0.00000000E+00  0.00000000E+00  0.00000000E+00
  0.00000000E+00  0.00000000E+00  0.00000000E+00
  0.00000000E+00  0.00000000E+00  0.00000000E+00
  0.00000000E+00  0.00000000E+00  0.00000000E+00
  0.00000000E+00  0.00000000E+00  0.00000000E+00
  0.00000000E+00  0.00000000E+00  0.00000000E+00
  0.00000000E+00  0.00000000E+00  0.00000000E+00
  0.00000000E+00  0.00000000E+00  0.00000000E+00
  0.00000000E+00  0.00000000E+00  0.00000000E+00
  0.00000000E+00  0.00000000E+00  0.00000000E+00
  0.00000000E+00  0.00000000E+00  0.00000000E+00
  0.00000000E+00  0.00000000E+00  0.00000000E+00
  0.00000000E+00  0.00000000E+00  0.00000000E+00
  0.00000000E+00  0.00000000E+00  0.00000000E+00
  0.00000000E+00  0.00000000E+00  0.00000000E+00
  0.00000000E+00  0.00000000E+00  0.00000000E+00
  0.00000000E+00  0.00000000E+00  0.00000000E+00
  0.00000000E+00  0.00000000E+00  0.00000000E+00
  0.00000000E+00  0.00000000E+00  0.00000000E+00
  0.00000000E+00  0.00000000E+00  0.00000000E+00
  0.00000000E+00  0.00000000E+00  0.00000000E+00
  0.00000000E+00  0.00000000E+00  0.00000000E+00
  0.00000000E+00  0.00000000E+00  0.00000000E+00
  0.00000000E+00  0.00000000E+00  0.00000000E+00
  0.00000000E+00  0.00000000E+00  0.00000000E+00
  0.00000000E+00  0.00000000E+00  0.00000000E+00
  0.00000000E+00  0.00000000E+00  0.00000000E+00
  0.00000000E+00  0.00000000E+00  0.00000000E+00
  0.00000000E+00  0.00000000E+00  0.00000000E+00
  0.00000000E+00  0.00000000E+00  0.00000000E+00
  0.00000000E+00  0.00000000E+00  0.00000000E+00
