FeNiCoMn_SQSfcc64_12_Fe28               
   3.80000000000000     
    -1.8814686455542415    1.3995605571346355    0.4662030227653843
     1.8837077333749535    1.4021128977871402    0.4675597822756384
    -0.0005350533061991    0.4707620701499751   -2.3459016834010935
   Fe   Ni   Co   Mn
    28    12    12    12
Direct
  0.9060097499217723  0.1552511343756917  0.8057120101084824
  0.6244184061131440  0.1207175447724511  0.7423240718817073
  0.6894468361185672  0.6940891639509901  0.8687950164135967
  0.9703313126494242  0.2152225672575524  0.4477104414873117
  0.1894069973639491  0.1913173195807788  0.8791874324136988
  0.3440789641770139  0.1003711821307775  0.6848569074377638
  0.4350158178767451  0.9443974574167390  0.8722856580135847
  0.5278687187367535  0.2784152470126676  0.5585706452120328
  0.7178771475670623  0.4630456375318532  0.4452872262076698
  0.7514797895648258  0.7450638616044460  0.5033618171984516
  0.1264086408268874  0.6238744471270075  0.7500843271507499
  0.1511374757609465  0.9056969526414060  0.8062389376576216
  0.2848092572306627  0.5312830412817724  0.5644844676476839
  0.3151471272899416  0.8164740074891201  0.6240286564571672
  0.4355141497287494  0.4340443964784436  0.3725828238241510
  0.4709188680401322  0.7228131589388049  0.4423817186465813
  0.6250664853109015  0.6198536008868288  0.2547757334951356
  0.6492780169869126  0.9041843347148270  0.3179920733791920
  0.7471421159953935  0.2474337847492773  0.9962140303963987
  0.8127188958140070  0.8073408087041010  0.1267174054724720
  0.0032401257195955  0.5032962565245953  0.5065997714991132
  0.1857114249818580  0.6870965379807915  0.3782402662286033
  0.3174856175905351  0.3131431671192354  0.1241143586808933
  0.3404157224721222  0.5964472233297263  0.1888300783114068
  0.3632520141133093  0.8814434941949723  0.2514860313814548
  0.4996193594857291  0.4994099858127164  0.9983804823057685
  1.0006548160220172  0.9924322967360653  0.9961578347617904
  0.2429392225966386  0.7517589472737291  0.9971069269362055
  0.9409152031806179  0.4349678349265882  0.8749015015974783
  0.4717339108162581  0.2205628239322307  0.9369869203892223
  0.7198480119833376  0.9697500622484090  0.9351520930720602
  0.7775061408278618  0.0262937369400767  0.5584899684979056
  0.2209834922392115  0.4715021103928319  0.9397164172120883
  0.9070427254708274  0.6535330513946130  0.3153023513071795
  0.9338449202224419  0.9336194504216765  0.3745034881532111
  0.5605505479726636  0.0650797059738268  0.1255984873595281
  0.5991167405551556  0.3422335006837224  0.1877355231191709
  0.0308428452795181  0.7823950028330661  0.5606603457951960
  0.1576250700184638  0.4050663287414249  0.3126839865930569
  0.0647333608948931  0.5634483001792405  0.1262537305363559
  0.9675335778774645  0.7181167300575005  0.9332331026082190
  0.8153041148343544  0.3110421220500917  0.6237895149518379
  0.8745482038998611  0.8747125103632041  0.7488847255815473
  0.3718661034133794  0.3738821955226864  0.7528007884403638
  0.4103026175533050  0.6589878944228127  0.8146234594469742
  0.6863542215016821  0.1865791258302541  0.3747457909117534
  0.0618180472982607  0.0628592989782874  0.6282204875868855
  0.0981223004430265  0.3455050599994250  0.6902194798534922
  0.2501849509378560  0.2559010104199330  0.5038173432990135
  0.4100723746730666  0.1575697310980133  0.3146395240052496
  0.2851322210553337  0.0320271474235551  0.0614632245327842
  0.0307018934848396  0.2838327450990589  0.0597990550543279
  0.6598750909066736  0.4077768166361599  0.8016191947260308
  0.8482645295216655  0.5953366281224699  0.6914628268500113
  0.4974435886522428  0.0026864544402858  0.4953555950475860
  0.5552801346336872  0.5557986203393160  0.6230500322027566
  0.5947161186211672  0.8438261066138547  0.6924192957207511
  0.8391537965171777  0.0841512192638036  0.1861637001292157
  0.8812921220520115  0.3739377870210480  0.2535873690365722
  0.7882559733604949  0.5343407197938892  0.0598737878779963
  0.1323660159562025  0.1255426150384421  0.2511898304194388
  0.2095563522152408  0.9718184361404645  0.4344793827738019
  0.5323802996285354  0.7884008186523098  0.0626702208629763
  0.0873393054456105  0.8409987403880247  0.1894003038412411
 
  0.00000000E+00  0.00000000E+00  0.00000000E+00
  0.00000000E+00  0.00000000E+00  0.00000000E+00
  0.00000000E+00  0.00000000E+00  0.00000000E+00
  0.00000000E+00  0.00000000E+00  0.00000000E+00
  0.00000000E+00  0.00000000E+00  0.00000000E+00
  0.00000000E+00  0.00000000E+00  0.00000000E+00
  0.00000000E+00  0.00000000E+00  0.00000000E+00
  0.00000000E+00  0.00000000E+00  0.00000000E+00
  0.00000000E+00  0.00000000E+00  0.00000000E+00
  0.00000000E+00  0.00000000E+00  0.00000000E+00
  0.00000000E+00  0.00000000E+00  0.00000000E+00
  0.00000000E+00  0.00000000E+00  0.00000000E+00
  0.00000000E+00  0.00000000E+00  0.00000000E+00
  0.00000000E+00  0.00000000E+00  0.00000000E+00
  0.00000000E+00  0.00000000E+00  0.00000000E+00
  0.00000000E+00  0.00000000E+00  0.00000000E+00
  0.00000000E+00  0.00000000E+00  0.00000000E+00
  0.00000000E+00  0.00000000E+00  0.00000000E+00
  0.00000000E+00  0.00000000E+00  0.00000000E+00
  0.00000000E+00  0.00000000E+00  0.00000000E+00
  0.00000000E+00  0.00000000E+00  0.00000000E+00
  0.00000000E+00  0.00000000E+00  0.00000000E+00
  0.00000000E+00  0.00000000E+00  0.00000000E+00
  0.00000000E+00  0.00000000E+00  0.00000000E+00
  0.00000000E+00  0.00000000E+00  0.00000000E+00
  0.00000000E+00  0.00000000E+00  0.00000000E+00
  0.00000000E+00  0.00000000E+00  0.00000000E+00
  0.00000000E+00  0.00000000E+00  0.00000000E+00
  0.00000000E+00  0.00000000E+00  0.00000000E+00
  0.00000000E+00  0.00000000E+00  0.00000000E+00
  0.00000000E+00  0.00000000E+00  0.00000000E+00
  0.00000000E+00  0.00000000E+00  0.00000000E+00
  0.00000000E+00  0.00000000E+00  0.00000000E+00
  0.00000000E+00  0.00000000E+00  0.00000000E+00
  0.00000000E+00  0.00000000E+00  0.00000000E+00
  0.00000000E+00  0.00000000E+00  0.00000000E+00
  0.00000000E+00  0.00000000E+00  0.00000000E+00
  0.00000000E+00  0.00000000E+00  0.00000000E+00
  0.00000000E+00  0.00000000E+00  0.00000000E+00
  0.00000000E+00  0.00000000E+00  0.00000000E+00
  0.00000000E+00  0.00000000E+00  0.00000000E+00
  0.00000000E+00  0.00000000E+00  0.00000000E+00
  0.00000000E+00  0.00000000E+00  0.00000000E+00
  0.00000000E+00  0.00000000E+00  0.00000000E+00
  0.00000000E+00  0.00000000E+00  0.00000000E+00
  0.00000000E+00  0.00000000E+00  0.00000000E+00
  0.00000000E+00  0.00000000E+00  0.00000000E+00
  0.00000000E+00  0.00000000E+00  0.00000000E+00
  0.00000000E+00  0.00000000E+00  0.00000000E+00
  0.00000000E+00  0.00000000E+00  0.00000000E+00
  0.00000000E+00  0.00000000E+00  0.00000000E+00
  0.00000000E+00  0.00000000E+00  0.00000000E+00
  0.00000000E+00  0.00000000E+00  0.00000000E+00
  0.00000000E+00  0.00000000E+00  0.00000000E+00
  0.00000000E+00  0.00000000E+00  0.00000000E+00
  0.00000000E+00  0.00000000E+00  0.00000000E+00
  0.00000000E+00  0.00000000E+00  0.00000000E+00
  0.00000000E+00  0.00000000E+00  0.00000000E+00
  0.00000000E+00  0.00000000E+00  0.00000000E+00
  0.00000000E+00  0.00000000E+00  0.00000000E+00
  0.00000000E+00  0.00000000E+00  0.00000000E+00
  0.00000000E+00  0.00000000E+00  0.00000000E+00
  0.00000000E+00  0.00000000E+00  0.00000000E+00
  0.00000000E+00  0.00000000E+00  0.00000000E+00
