FeNiCoPd_SQSbcc64_12_Fe28               
   3.00000000000000     
    -2.7542990314852465   -1.3013014837115595    1.3620585638501539
     2.2736413850109285    1.7340602109721561    1.9317847540598958
    -2.2675388329802093    1.7283359444520703   -1.9313627114237790
   Fe   Ni   Co   Pd
    28    12    12    12
Direct
  0.7406739526135973  0.9923914462348191  0.8323078327470056
  0.7545878605076238  0.4942644080139241  0.8215274318237912
  0.7374707733672118  0.7398096176457588  0.8284664291659022
  0.7537928584750143  0.9886828771548395  0.5706012347215061
  0.7509182407558187  0.2352572892063853  0.5615421926059262
  0.7648225007624538  0.4896199879500434  0.3301173681899174
  0.7652824915408697  0.4915697319499822  0.0675836030649001
  0.5040212959030135  0.5154286687221035  0.8667416475393186
  0.4918478871289982  0.7539356390300430  0.8647488731009575
  0.4948650062024046  0.5087378384325637  0.6120478924015093
  0.4884191694086244  0.7543121292957405  0.6191657624574428
  0.4987548149420838  0.2531373468884205  0.3646452940694453
  0.4982086155853119  0.5161259660869072  0.3682491772025740
  0.5112146248403651  0.0125574403478244  0.1098606468748586
  0.5051101845067143  0.7607311455797088  0.1176503831215250
  0.2529326609808369  0.0277382215205965  0.8988964676633273
  0.2512258642480535  0.2940884470601146  0.9137726917580014
  0.2434379425502169  0.5296832469381384  0.9080768300366119
  0.2471794533311497  0.7663721054418644  0.9004757214356250
  0.2405993224215538  0.0157858076463867  0.6463911089722858
  0.2503498544560107  0.7732293182889667  0.1592167866637823
  0.0017071921626140  0.9854678042327174  0.7826500079047306
  0.9928061040760171  0.2161673601125833  0.7786240263049368
  0.9913202528994981  0.4608984443276122  0.7829964187701068
  0.0023316844748354  0.4788004191351170  0.5343406465966745
  0.0092396156028260  0.4813388408297651  0.2809837078824238
  0.0106138621804224  0.7331056166343942  0.2860789807540753
  0.9973702902792025  0.2243514859643763  0.0296466125253517
  0.7537287140105821  0.2382320945300855  0.8249643172324511
  0.7432565710681870  0.2341066001314767  0.3186697984413967
  0.7585233662282690  0.2414354750312505  0.0735415549625688
  0.4958219362617615  0.0020989864545950  0.8662265484066112
  0.4995745090750452  0.5187921161153125  0.1121918152794321
  0.2407327959114027  0.5266964672841500  0.6514585784328532
  0.2479040610717173  0.0245438467106273  0.4049812086639378
  0.2553384794310500  0.5402198751038372  0.4127039065331257
  0.0013271115280828  0.9701528865293230  0.5295528245354050
  0.9915848860325327  0.2158384331628361  0.5336346628192552
  0.0032930900444951  0.9727850008059467  0.2879864917403914
  0.9998300628767586  0.4664993701526341  0.0302487769919530
  0.7518017427567173  0.4840613604473326  0.5652488124384510
  0.7496930793420471  0.9909360583237363  0.3229048827204253
  0.7403124824221725  0.9891853380120333  0.0812797377419636
  0.7490992547465485  0.7386645679007461  0.0725560039440784
  0.4959366950393377  0.9978334683909633  0.3535239919073656
  0.4941573132672519  0.7556936212994346  0.3591841292014704
  0.2479662822558576  0.7747978736772685  0.6514682028102986
  0.2574002506410851  0.2881415695772909  0.4114938480186367
  0.2537358047519112  0.7773444835042805  0.4009914569544560
  0.2554760391188128  0.5403951556437095  0.1612673369913427
  0.0060959936624320  0.7205270321530092  0.5235011374621992
  0.9929742851774516  0.7124909318756103  0.0371830749891787
  0.7541089226480490  0.7423221733337061  0.5793804826019349
  0.7499170463144463  0.7345519000551498  0.3157859226355260
  0.5020438950153341  0.2645624607129711  0.8678380618150594
  0.5033258481389606  0.0031358442050447  0.6118038736628580
  0.5038255868138295  0.2612956383566783  0.6095575328834449
  0.5171372134907742  0.2718470293894074  0.1236271803375179
  0.2424162229512181  0.2789881737290859  0.6566803691463412
  0.2493489519277391  0.0203622275343800  0.1532900624947049
  0.2546175278135812  0.2906215187293610  0.1586190794527965
  0.9988834960518711  0.7211419062074033  0.7773137270259164
  0.9977556517864992  0.2284803664370904  0.2907759165557257
  0.9899504541227824  0.9676294978205409  0.0311589158144059
 
  0.00000000E+00  0.00000000E+00  0.00000000E+00
  0.00000000E+00  0.00000000E+00  0.00000000E+00
  0.00000000E+00  0.00000000E+00  0.00000000E+00
  0.00000000E+00  0.00000000E+00  0.00000000E+00
  0.00000000E+00  0.00000000E+00  0.00000000E+00
  0.00000000E+00  0.00000000E+00  0.00000000E+00
  0.00000000E+00  0.00000000E+00  0.00000000E+00
  0.00000000E+00  0.00000000E+00  0.00000000E+00
  0.00000000E+00  0.00000000E+00  0.00000000E+00
  0.00000000E+00  0.00000000E+00  0.00000000E+00
  0.00000000E+00  0.00000000E+00  0.00000000E+00
  0.00000000E+00  0.00000000E+00  0.00000000E+00
  0.00000000E+00  0.00000000E+00  0.00000000E+00
  0.00000000E+00  0.00000000E+00  0.00000000E+00
  0.00000000E+00  0.00000000E+00  0.00000000E+00
  0.00000000E+00  0.00000000E+00  0.00000000E+00
  0.00000000E+00  0.00000000E+00  0.00000000E+00
  0.00000000E+00  0.00000000E+00  0.00000000E+00
  0.00000000E+00  0.00000000E+00  0.00000000E+00
  0.00000000E+00  0.00000000E+00  0.00000000E+00
  0.00000000E+00  0.00000000E+00  0.00000000E+00
  0.00000000E+00  0.00000000E+00  0.00000000E+00
  0.00000000E+00  0.00000000E+00  0.00000000E+00
  0.00000000E+00  0.00000000E+00  0.00000000E+00
  0.00000000E+00  0.00000000E+00  0.00000000E+00
  0.00000000E+00  0.00000000E+00  0.00000000E+00
  0.00000000E+00  0.00000000E+00  0.00000000E+00
  0.00000000E+00  0.00000000E+00  0.00000000E+00
  0.00000000E+00  0.00000000E+00  0.00000000E+00
  0.00000000E+00  0.00000000E+00  0.00000000E+00
  0.00000000E+00  0.00000000E+00  0.00000000E+00
  0.00000000E+00  0.00000000E+00  0.00000000E+00
  0.00000000E+00  0.00000000E+00  0.00000000E+00
  0.00000000E+00  0.00000000E+00  0.00000000E+00
  0.00000000E+00  0.00000000E+00  0.00000000E+00
  0.00000000E+00  0.00000000E+00  0.00000000E+00
  0.00000000E+00  0.00000000E+00  0.00000000E+00
  0.00000000E+00  0.00000000E+00  0.00000000E+00
  0.00000000E+00  0.00000000E+00  0.00000000E+00
  0.00000000E+00  0.00000000E+00  0.00000000E+00
  0.00000000E+00  0.00000000E+00  0.00000000E+00
  0.00000000E+00  0.00000000E+00  0.00000000E+00
  0.00000000E+00  0.00000000E+00  0.00000000E+00
  0.00000000E+00  0.00000000E+00  0.00000000E+00
  0.00000000E+00  0.00000000E+00  0.00000000E+00
  0.00000000E+00  0.00000000E+00  0.00000000E+00
  0.00000000E+00  0.00000000E+00  0.00000000E+00
  0.00000000E+00  0.00000000E+00  0.00000000E+00
  0.00000000E+00  0.00000000E+00  0.00000000E+00
  0.00000000E+00  0.00000000E+00  0.00000000E+00
  0.00000000E+00  0.00000000E+00  0.00000000E+00
  0.00000000E+00  0.00000000E+00  0.00000000E+00
  0.00000000E+00  0.00000000E+00  0.00000000E+00
  0.00000000E+00  0.00000000E+00  0.00000000E+00
  0.00000000E+00  0.00000000E+00  0.00000000E+00
  0.00000000E+00  0.00000000E+00  0.00000000E+00
  0.00000000E+00  0.00000000E+00  0.00000000E+00
  0.00000000E+00  0.00000000E+00  0.00000000E+00
  0.00000000E+00  0.00000000E+00  0.00000000E+00
  0.00000000E+00  0.00000000E+00  0.00000000E+00
  0.00000000E+00  0.00000000E+00  0.00000000E+00
  0.00000000E+00  0.00000000E+00  0.00000000E+00
  0.00000000E+00  0.00000000E+00  0.00000000E+00
  0.00000000E+00  0.00000000E+00  0.00000000E+00
