FeNiCoCr_SQSfcc64_17_13                 
   3.50000000000000     
     0.0005603008096367   -2.0269638334887188   -1.0071562052096878
    -1.0183099850697417    1.0138331272714560   -2.0144486046498535
     3.0511106735137652    1.0121215719004386    0.0010382799607162
   Fe   Ni   Co   Cr
    17    17    17    13
Direct
  0.5639590176659932  0.9720184548105870  0.1548221676429973
  0.9341421410668487  0.7859557954788301  0.0962444874669083
  0.2533736326338510  0.8732124798158457  0.6279829259990878
  0.3147966016734853  0.5960451894109741  0.0338706672103458
  0.0625562565973978  0.7125074070151552  0.4015996162837427
  0.9978931115969757  0.4990956455448288  0.0014643081166454
  0.9331654157125112  0.7797388903339351  0.5957318543661946
  0.1901842995014519  0.6549445198901651  0.7198986659226911
  0.0611649458347204  0.7234823777260997  0.9062923950063853
  0.0055748902460744  0.4935891051141316  0.5008260592159699
  0.9348033648765431  0.2791126410932760  0.0890925227570180
  0.4443829811377802  0.5318105294891332  0.8420673822253737
  0.1236108980036901  0.4352356221253662  0.8102321833348415
  0.1942216656741959  0.1600642116844383  0.2195880051260423
  0.6268005442081670  0.1875356583277908  0.5636459191654202
  0.3120550637342618  0.0915493313093187  0.5312572552896132
  0.9991910052196353  0.0003304236415543  0.4976809493108599
  0.2502104441424169  0.8759905676028727  0.1239386849773984
  0.1239886484713807  0.9374734065520156  0.3115876023476221
  0.8102366723229297  0.8453483347748212  0.2806131433228330
  0.6887275798090620  0.9060676132007885  0.4714273267590717
  0.5630886480960815  0.9672896626068235  0.6567334139891351
  0.5011571252215202  0.7502299984850420  0.2507029934242812
  0.6887943914791500  0.9098326482508847  0.9702509396675968
  0.8703959790465980  0.5642863037575245  0.1869765356568769
  0.6217620040031770  0.6874393130885962  0.5611809664350913
  0.5610211460271131  0.4706564551658000  0.1557279421571521
  0.5646799168222603  0.4694128587917965  0.6564744532462943
  0.2507550634026082  0.3708713704497158  0.6254749850606545
  0.0001463779909264  0.0006048985575820  0.0006140750817157
  0.8146423710767653  0.3437745810329066  0.7833587612127112
  0.3737545931009936  0.3125437551861112  0.9349047050641603
  0.4377287348847416  0.0292603650075669  0.3427647931151235
  0.8784139643398620  0.0608139879513892  0.6883605641446695
  0.6233943066482572  0.6865155436422641  0.0609630997269215
  0.1864600044910161  0.6583067879480298  0.2193208880190115
  0.8139539720180192  0.8441628775329020  0.7819734363393189
  0.7512285397442798  0.6251498831908151  0.3760951560204956
  0.5003577138960905  0.7519146591812444  0.7522342009653988
  0.3793198331522938  0.8148479070777118  0.9369202236961494
  0.2501485615089222  0.3708663679398887  0.1204899254900986
  0.7537040812823288  0.6272762539114816  0.8758100383603240
  0.6864691548839779  0.4105382723890099  0.4697488042972708
  0.4997187776531735  0.2492444064122661  0.2488788512804794
  0.3110519040645721  0.0939212383072102  0.0283663233092203
  0.0647575291416327  0.2190990880933002  0.4072759979064591
  0.9367256571824081  0.2822255506236758  0.5908195471423663
  0.6896148892151710  0.4085506445728483  0.9700720083930261
  0.0640103768304773  0.2183411863031977  0.9069896878907948
  0.7514450152553832  0.1262024168100734  0.8756686189982528
  0.4346250152377869  0.0297470403941891  0.8397902349498432
  0.3689691605245858  0.8141593393511041  0.4349703399790165
  0.1232223658812186  0.9304244860988417  0.8147316213048708
  0.4277667363314026  0.5252503506575502  0.3447563029643830
  0.3150834881157700  0.5923532839771383  0.5391907451345326
  0.1162944316448199  0.4331479602997177  0.3024530685118048
  0.8757495033747921  0.5614068865664282  0.6856119167822563
  0.8040540750885792  0.3454529919364717  0.2847031431797525
  0.6185864968083141  0.1916839782904678  0.0567427891820708
  0.3796066646005620  0.3047881426073652  0.4394628676132974
  0.8864130532099145  0.0742782473392727  0.1933285309594515
  0.7451019346388139  0.1281789099493460  0.3812861811421621
  0.5086434962445764  0.2470374459355637  0.7519399862546881
  0.1821437657096700  0.1568034493869631  0.7160162141037724
 
  0.00000000E+00  0.00000000E+00  0.00000000E+00
  0.00000000E+00  0.00000000E+00  0.00000000E+00
  0.00000000E+00  0.00000000E+00  0.00000000E+00
  0.00000000E+00  0.00000000E+00  0.00000000E+00
  0.00000000E+00  0.00000000E+00  0.00000000E+00
  0.00000000E+00  0.00000000E+00  0.00000000E+00
  0.00000000E+00  0.00000000E+00  0.00000000E+00
  0.00000000E+00  0.00000000E+00  0.00000000E+00
  0.00000000E+00  0.00000000E+00  0.00000000E+00
  0.00000000E+00  0.00000000E+00  0.00000000E+00
  0.00000000E+00  0.00000000E+00  0.00000000E+00
  0.00000000E+00  0.00000000E+00  0.00000000E+00
  0.00000000E+00  0.00000000E+00  0.00000000E+00
  0.00000000E+00  0.00000000E+00  0.00000000E+00
  0.00000000E+00  0.00000000E+00  0.00000000E+00
  0.00000000E+00  0.00000000E+00  0.00000000E+00
  0.00000000E+00  0.00000000E+00  0.00000000E+00
  0.00000000E+00  0.00000000E+00  0.00000000E+00
  0.00000000E+00  0.00000000E+00  0.00000000E+00
  0.00000000E+00  0.00000000E+00  0.00000000E+00
  0.00000000E+00  0.00000000E+00  0.00000000E+00
  0.00000000E+00  0.00000000E+00  0.00000000E+00
  0.00000000E+00  0.00000000E+00  0.00000000E+00
  0.00000000E+00  0.00000000E+00  0.00000000E+00
  0.00000000E+00  0.00000000E+00  0.00000000E+00
  0.00000000E+00  0.00000000E+00  0.00000000E+00
  0.00000000E+00  0.00000000E+00  0.00000000E+00
  0.00000000E+00  0.00000000E+00  0.00000000E+00
  0.00000000E+00  0.00000000E+00  0.00000000E+00
  0.00000000E+00  0.00000000E+00  0.00000000E+00
  0.00000000E+00  0.00000000E+00  0.00000000E+00
  0.00000000E+00  0.00000000E+00  0.00000000E+00
  0.00000000E+00  0.00000000E+00  0.00000000E+00
  0.00000000E+00  0.00000000E+00  0.00000000E+00
  0.00000000E+00  0.00000000E+00  0.00000000E+00
  0.00000000E+00  0.00000000E+00  0.00000000E+00
  0.00000000E+00  0.00000000E+00  0.00000000E+00
  0.00000000E+00  0.00000000E+00  0.00000000E+00
  0.00000000E+00  0.00000000E+00  0.00000000E+00
  0.00000000E+00  0.00000000E+00  0.00000000E+00
  0.00000000E+00  0.00000000E+00  0.00000000E+00
  0.00000000E+00  0.00000000E+00  0.00000000E+00
  0.00000000E+00  0.00000000E+00  0.00000000E+00
  0.00000000E+00  0.00000000E+00  0.00000000E+00
  0.00000000E+00  0.00000000E+00  0.00000000E+00
  0.00000000E+00  0.00000000E+00  0.00000000E+00
  0.00000000E+00  0.00000000E+00  0.00000000E+00
  0.00000000E+00  0.00000000E+00  0.00000000E+00
  0.00000000E+00  0.00000000E+00  0.00000000E+00
  0.00000000E+00  0.00000000E+00  0.00000000E+00
  0.00000000E+00  0.00000000E+00  0.00000000E+00
  0.00000000E+00  0.00000000E+00  0.00000000E+00
  0.00000000E+00  0.00000000E+00  0.00000000E+00
  0.00000000E+00  0.00000000E+00  0.00000000E+00
  0.00000000E+00  0.00000000E+00  0.00000000E+00
  0.00000000E+00  0.00000000E+00  0.00000000E+00
  0.00000000E+00  0.00000000E+00  0.00000000E+00
  0.00000000E+00  0.00000000E+00  0.00000000E+00
  0.00000000E+00  0.00000000E+00  0.00000000E+00
  0.00000000E+00  0.00000000E+00  0.00000000E+00
  0.00000000E+00  0.00000000E+00  0.00000000E+00
  0.00000000E+00  0.00000000E+00  0.00000000E+00
  0.00000000E+00  0.00000000E+00  0.00000000E+00
  0.00000000E+00  0.00000000E+00  0.00000000E+00
