FeNiCrMn_SQSfcc64_14_Fe22               
   3.80000000000000     
    -1.8431826202621553    1.4148703956557251    0.4669905557369016
     1.8421025595625280    1.4148851873071253    0.4628593275417253
     0.0025593313251625    0.4733256754461921   -2.3297929742127628
   Fe   Ni   Cr   Mn
    22    14    14    14
Direct
  0.9402647827573775  0.4348082805207592  0.8809952422313250
  0.9643619595708964  0.7160845322633995  0.9376869503258264
  0.6210123785628208  0.1312308595772625  0.7540125795409710
  0.8454982903896726  0.5977231089294760  0.6874087018179286
  0.5970999524796842  0.8479863099868309  0.6880835899346187
  0.8420751376504063  0.0936235649791035  0.1864697447903379
  0.9363455923118809  0.9392305230077103  0.3762095066032355
  0.1551942883887081  0.8946445717382538  0.8126571711151170
  0.2509691960610857  0.2490326651278670  0.4875964635497161
  0.2821396680228051  0.5312459660786510  0.5579586809480017
  0.4409437665598609  0.4369716349168499  0.3753140384972425
  0.4678604870743303  0.7212675792042805  0.4386516085281210
  0.5937516192621916  0.3453265101364110  0.1894272073505338
  0.7503499606287352  0.2535845573119773  0.0006474427744048
  0.8088438437928921  0.8096296507194219  0.1263150904930707
  0.1257194497117640  0.1225237589093291  0.2446044514948854
  0.1831618563858208  0.6864853040979131  0.3693220300564087
  0.5006135387106491  0.5027940745656543  0.0060419469312425
  0.9975110248165788  0.9970188789948605  0.9987051481695430
  0.0667483789909060  0.5590641020967756  0.1206675084985297
  0.0849116327647662  0.8395667955264341  0.1796559999116606
  0.2479749326253524  0.7413776137389007  0.9989779462052309
  0.9026458297533079  0.1574195415698719  0.8129869190176565
  0.7186404548202425  0.9684610460470772  0.9357683863600187
  0.4380044511593426  0.9378914234533123  0.8746798087247666
  0.4983585014331010  0.0042933851651931  0.5012592312319117
  0.5651043321364371  0.5652819133596070  0.6230280289764882
  0.7255655377665434  0.4708124457587191  0.4407275566718145
  0.9058828054432557  0.6576598171144193  0.3134686730595892
  0.4069152231402676  0.1546091859916907  0.3097128409246413
  0.5628042210414017  0.0614839387720625  0.1247842023771200
  0.6265847512543697  0.6270285266643302  0.2521768454400209
  0.6547753599335253  0.9052041997186059  0.3128449470258212
  0.0028059148216317  0.4989719726765314  0.5006880363463351
  0.0311780871747456  0.7790478316243492  0.5638562150734076
  0.3486028587840541  0.5957729341403687  0.1881844134795545
  0.4720275513501500  0.2204421064096409  0.9447876904626291
  0.9738598017977407  0.2180855603176614  0.4254582762672250
  0.3374023607044120  0.1102265659358875  0.6959891425428623
  0.3782312689193685  0.3832085522927655  0.7458304846469439
  0.6839249675153265  0.1812103712727894  0.3690912456486312
  0.8796282094922401  0.3769608035734915  0.2504613642477008
  0.1033821067793999  0.3334057071159848  0.6887197817166509
  0.1186539443878075  0.6147060425608748  0.7521559747231354
  0.3157462632786830  0.8189220206020922  0.6251531723369212
  0.7851169257823566  0.5297024117364472  0.0667305002407211
  0.1658432582536070  0.4155579085809349  0.3146501484262441
  0.3100233125588827  0.3141360003912673  0.1251339195197602
  0.3725948946653269  0.8753644593292256  0.2527814106419807
  0.5315538257467898  0.7832412219609685  0.0618001253461833
  0.6560796533773828  0.4116415582313608  0.8168518308515025
  0.6821839364836029  0.6871258651547586  0.8730545064127686
  0.7789408548428237  0.0325078830440732  0.5627998648468002
  0.8202605683538039  0.3162570487355207  0.6275908577401779
  0.8780949844445004  0.8752215827384880  0.7503231680295590
  0.1788804532219026  0.1775428142025587  0.8828009751868687
  0.2213218112651353  0.4637073613467415  0.9510170174815253
  0.4027660846049937  0.6525138754794657  0.8086683055356788
  0.5380487863983910  0.2831470436027295  0.5573197277132033
  0.7509997089452365  0.7566825214404624  0.5013306545810551
  0.0567201325763209  0.0593857121494977  0.6217919226068094
  0.2129006446606428  0.9711163955911224  0.4347004397985193
  0.2803918013767320  0.0237957277466808  0.0598724963623502
  0.0232018220350295  0.2790258739722421  0.0615598416084659
 
  0.00000000E+00  0.00000000E+00  0.00000000E+00
  0.00000000E+00  0.00000000E+00  0.00000000E+00
  0.00000000E+00  0.00000000E+00  0.00000000E+00
  0.00000000E+00  0.00000000E+00  0.00000000E+00
  0.00000000E+00  0.00000000E+00  0.00000000E+00
  0.00000000E+00  0.00000000E+00  0.00000000E+00
  0.00000000E+00  0.00000000E+00  0.00000000E+00
  0.00000000E+00  0.00000000E+00  0.00000000E+00
  0.00000000E+00  0.00000000E+00  0.00000000E+00
  0.00000000E+00  0.00000000E+00  0.00000000E+00
  0.00000000E+00  0.00000000E+00  0.00000000E+00
  0.00000000E+00  0.00000000E+00  0.00000000E+00
  0.00000000E+00  0.00000000E+00  0.00000000E+00
  0.00000000E+00  0.00000000E+00  0.00000000E+00
  0.00000000E+00  0.00000000E+00  0.00000000E+00
  0.00000000E+00  0.00000000E+00  0.00000000E+00
  0.00000000E+00  0.00000000E+00  0.00000000E+00
  0.00000000E+00  0.00000000E+00  0.00000000E+00
  0.00000000E+00  0.00000000E+00  0.00000000E+00
  0.00000000E+00  0.00000000E+00  0.00000000E+00
  0.00000000E+00  0.00000000E+00  0.00000000E+00
  0.00000000E+00  0.00000000E+00  0.00000000E+00
  0.00000000E+00  0.00000000E+00  0.00000000E+00
  0.00000000E+00  0.00000000E+00  0.00000000E+00
  0.00000000E+00  0.00000000E+00  0.00000000E+00
  0.00000000E+00  0.00000000E+00  0.00000000E+00
  0.00000000E+00  0.00000000E+00  0.00000000E+00
  0.00000000E+00  0.00000000E+00  0.00000000E+00
  0.00000000E+00  0.00000000E+00  0.00000000E+00
  0.00000000E+00  0.00000000E+00  0.00000000E+00
  0.00000000E+00  0.00000000E+00  0.00000000E+00
  0.00000000E+00  0.00000000E+00  0.00000000E+00
  0.00000000E+00  0.00000000E+00  0.00000000E+00
  0.00000000E+00  0.00000000E+00  0.00000000E+00
  0.00000000E+00  0.00000000E+00  0.00000000E+00
  0.00000000E+00  0.00000000E+00  0.00000000E+00
  0.00000000E+00  0.00000000E+00  0.00000000E+00
  0.00000000E+00  0.00000000E+00  0.00000000E+00
  0.00000000E+00  0.00000000E+00  0.00000000E+00
  0.00000000E+00  0.00000000E+00  0.00000000E+00
  0.00000000E+00  0.00000000E+00  0.00000000E+00
  0.00000000E+00  0.00000000E+00  0.00000000E+00
  0.00000000E+00  0.00000000E+00  0.00000000E+00
  0.00000000E+00  0.00000000E+00  0.00000000E+00
  0.00000000E+00  0.00000000E+00  0.00000000E+00
  0.00000000E+00  0.00000000E+00  0.00000000E+00
  0.00000000E+00  0.00000000E+00  0.00000000E+00
  0.00000000E+00  0.00000000E+00  0.00000000E+00
  0.00000000E+00  0.00000000E+00  0.00000000E+00
  0.00000000E+00  0.00000000E+00  0.00000000E+00
  0.00000000E+00  0.00000000E+00  0.00000000E+00
  0.00000000E+00  0.00000000E+00  0.00000000E+00
  0.00000000E+00  0.00000000E+00  0.00000000E+00
  0.00000000E+00  0.00000000E+00  0.00000000E+00
  0.00000000E+00  0.00000000E+00  0.00000000E+00
  0.00000000E+00  0.00000000E+00  0.00000000E+00
  0.00000000E+00  0.00000000E+00  0.00000000E+00
  0.00000000E+00  0.00000000E+00  0.00000000E+00
  0.00000000E+00  0.00000000E+00  0.00000000E+00
  0.00000000E+00  0.00000000E+00  0.00000000E+00
  0.00000000E+00  0.00000000E+00  0.00000000E+00
  0.00000000E+00  0.00000000E+00  0.00000000E+00
  0.00000000E+00  0.00000000E+00  0.00000000E+00
  0.00000000E+00  0.00000000E+00  0.00000000E+00
