FeNiCoMn_SQSbcc64_15_Co19               
   2.80000000000000     
     1.0235367846257413   -2.0176960650719216    0.0023183506422623
    -3.0757895268513806   -1.0125278746456889    1.0216178776432647
    -0.5078156970650395    0.5115380620740786   -4.5776742980105407
   Fe   Ni   Co   Mn
    15    15    19    15
Direct
  0.0678629727035543  0.9836751497012156  0.2219213676827235
  0.1872366139313992  0.7009990334053550  0.1524511280324840
 -0.0071902101069320  0.5044705140228811 -0.0009911643545190
  0.8800355449303705  0.7810349953868742  0.0615450925091626
  0.1959705149107636  0.9550547068944530  0.6625161658740011
  0.9469408013041658  0.7665555309878359  0.2827529642531729
  0.0615282215569492  0.7318772468226229  0.7210048500425508
  0.3131939102432271  0.6681157789473687  0.5958065419007657
  0.5594446592037380  0.6116063019816909  0.4691785464198197
  0.3624693000759345  0.3996552778930286  0.3115017768078990
  0.1823084100341846  0.1996186070824811  0.1539842842601752
  0.6236482016585227  0.3448213657038550  0.1931940764103074
  0.1855267343518119  0.4516719138311512  0.6582815773514208
  0.4344009738964204  0.3923939339999240  0.5356058085889839
  0.2437156013144663  0.4425140145758676  0.8729531218292933
  0.1241011950745470  0.9679904927549442  0.4398166693870223
  0.3747019800402058  0.8988709599666398  0.3111489466717587
  0.4353094431246600  0.6378069064119569  0.0259189443611124
  0.4947938294184265  0.6229526083361313  0.2574639989927834
  0.7463329634286263  0.5642110608319850  0.1287976986966341
  0.4357873941588722  0.1549746215641099  0.0317400254321273
  0.1170694527285051  0.7178187232755919  0.9327177847292497
  0.5668743248560748  0.8514459485703534  0.9681710561104209
  0.4984450562818066  0.1227663939596995  0.2480678932217386
  0.9338035926446340  0.2628713377920873  0.2752222957487299
  0.6979131257660431  0.5874473189154721  0.9017377476403892
  0.4964710593573669  0.3770931640140610  0.7515935692616914
  0.3197959542028653  0.1727142612537685  0.5947501872016500
  0.7521318037469896  0.3062232074579924  0.6224299117291262
  0.8131682459674955  0.2995783855728344  0.8455655008062035
  0.3092134762164878  0.9179774966536267  0.0922379948345037
  0.2458023839567925  0.6867919163610872  0.3781104540194198
  0.0712677425211421  0.4891362027842338  0.2195643284117781
  0.6970204204636692  0.8293776509028217  0.4078984230860610
  0.4990799392134163  0.8732413839064374  0.7495723621863097
  0.1288965089486107  0.4681193764422041  0.4400498419858668
  0.7517938946678703  0.8110007682071592  0.6260723151571614
 -0.0009744042703322 -0.0025737533190631  0.0011346782325398
  0.3711927604473972  0.6532116586900173  0.8090606078266441
  0.8126281889332004  0.8046319395954799  0.8380127736922465
  0.6246696766270879  0.5930422777478491  0.6897629745765120
  0.2524143610364606  0.1900069831961026  0.3762881141764760
  0.0709395194822961  0.2352125548902791  0.7215389068764080
  0.9345066358855504  0.5103521531980294  0.7764044188518953
  0.8120044545232872  0.0445057907942134  0.3396086318757611
  0.5567210357594132  0.3708945516393448  0.9633508760991882
  0.3824144880838464  0.1601463143696454  0.8173786050144023
  0.6912966078891106  0.0728711917783927  0.9061809123465240
  0.9426229358509409  0.0161870165925843  0.7805636132931764
  0.6182992986285640  0.8362122637528333  0.1880290521017954
  0.0011902043004282  0.7508463747712294  0.5018702067840203
  0.4389769865586283  0.8863242368804830  0.5296498019479196
  0.3163148006431477  0.4275405152840303  0.0948382064107291
  0.2599589061018999  0.9410100612698369  0.8804145080778011
  0.8176828225260017  0.5442444178374805  0.3432116170356737
  0.8652071628210770  0.2916646126427367  0.0624913366886515
  0.0016622945790491  0.2453815098150554  0.4943334006110059
  0.8710397251477303  0.5279704417846341  0.5621891497906947
  0.6910072723973686  0.3341088967519464  0.4107457501196289
  0.7397082258670258  0.0613097919172990  0.1193407870200836
  0.5589234508471521  0.1087683140707230  0.4617496644803999
  0.1177726198943391  0.2168283290882588  0.9343991401309116
  0.6268446339811072  0.0979426095236981  0.6934805734619733
  0.8781092986645415  0.0268843882650779  0.5636176051969576
 
  0.00000000E+00  0.00000000E+00  0.00000000E+00
  0.00000000E+00  0.00000000E+00  0.00000000E+00
  0.00000000E+00  0.00000000E+00  0.00000000E+00
  0.00000000E+00  0.00000000E+00  0.00000000E+00
  0.00000000E+00  0.00000000E+00  0.00000000E+00
  0.00000000E+00  0.00000000E+00  0.00000000E+00
  0.00000000E+00  0.00000000E+00  0.00000000E+00
  0.00000000E+00  0.00000000E+00  0.00000000E+00
  0.00000000E+00  0.00000000E+00  0.00000000E+00
  0.00000000E+00  0.00000000E+00  0.00000000E+00
  0.00000000E+00  0.00000000E+00  0.00000000E+00
  0.00000000E+00  0.00000000E+00  0.00000000E+00
  0.00000000E+00  0.00000000E+00  0.00000000E+00
  0.00000000E+00  0.00000000E+00  0.00000000E+00
  0.00000000E+00  0.00000000E+00  0.00000000E+00
  0.00000000E+00  0.00000000E+00  0.00000000E+00
  0.00000000E+00  0.00000000E+00  0.00000000E+00
  0.00000000E+00  0.00000000E+00  0.00000000E+00
  0.00000000E+00  0.00000000E+00  0.00000000E+00
  0.00000000E+00  0.00000000E+00  0.00000000E+00
  0.00000000E+00  0.00000000E+00  0.00000000E+00
  0.00000000E+00  0.00000000E+00  0.00000000E+00
  0.00000000E+00  0.00000000E+00  0.00000000E+00
  0.00000000E+00  0.00000000E+00  0.00000000E+00
  0.00000000E+00  0.00000000E+00  0.00000000E+00
  0.00000000E+00  0.00000000E+00  0.00000000E+00
  0.00000000E+00  0.00000000E+00  0.00000000E+00
  0.00000000E+00  0.00000000E+00  0.00000000E+00
  0.00000000E+00  0.00000000E+00  0.00000000E+00
  0.00000000E+00  0.00000000E+00  0.00000000E+00
  0.00000000E+00  0.00000000E+00  0.00000000E+00
  0.00000000E+00  0.00000000E+00  0.00000000E+00
  0.00000000E+00  0.00000000E+00  0.00000000E+00
  0.00000000E+00  0.00000000E+00  0.00000000E+00
  0.00000000E+00  0.00000000E+00  0.00000000E+00
  0.00000000E+00  0.00000000E+00  0.00000000E+00
  0.00000000E+00  0.00000000E+00  0.00000000E+00
  0.00000000E+00  0.00000000E+00  0.00000000E+00
  0.00000000E+00  0.00000000E+00  0.00000000E+00
  0.00000000E+00  0.00000000E+00  0.00000000E+00
  0.00000000E+00  0.00000000E+00  0.00000000E+00
  0.00000000E+00  0.00000000E+00  0.00000000E+00
  0.00000000E+00  0.00000000E+00  0.00000000E+00
  0.00000000E+00  0.00000000E+00  0.00000000E+00
  0.00000000E+00  0.00000000E+00  0.00000000E+00
  0.00000000E+00  0.00000000E+00  0.00000000E+00
  0.00000000E+00  0.00000000E+00  0.00000000E+00
  0.00000000E+00  0.00000000E+00  0.00000000E+00
  0.00000000E+00  0.00000000E+00  0.00000000E+00
  0.00000000E+00  0.00000000E+00  0.00000000E+00
  0.00000000E+00  0.00000000E+00  0.00000000E+00
  0.00000000E+00  0.00000000E+00  0.00000000E+00
  0.00000000E+00  0.00000000E+00  0.00000000E+00
  0.00000000E+00  0.00000000E+00  0.00000000E+00
  0.00000000E+00  0.00000000E+00  0.00000000E+00
  0.00000000E+00  0.00000000E+00  0.00000000E+00
  0.00000000E+00  0.00000000E+00  0.00000000E+00
  0.00000000E+00  0.00000000E+00  0.00000000E+00
  0.00000000E+00  0.00000000E+00  0.00000000E+00
  0.00000000E+00  0.00000000E+00  0.00000000E+00
  0.00000000E+00  0.00000000E+00  0.00000000E+00
  0.00000000E+00  0.00000000E+00  0.00000000E+00
  0.00000000E+00  0.00000000E+00  0.00000000E+00
  0.00000000E+00  0.00000000E+00  0.00000000E+00
