FeNiCoPd_SQSbcc12_Ni28                  
   1.00000000000000     
    -6.4061531625999972   -3.8293508021270291    5.4548085556397794
     5.1175585679871807    5.1007534508673498    7.2614978654078479
    -5.1607693873894354    5.1674739653000765   -7.2837403191419803
   Fe   Ni   Co   Pd
    12    28    12    12
Direct
  0.7578236692503921  0.2510227538099935  0.8092725462696619
  0.7456197994576500  0.2505800101597656  0.3172956660574146
  0.7572575077769169  0.2568901978786818  0.0628689177387999
  0.4973822770381201  0.9866388224272760  0.8716017523599643
  0.4928163865659642  0.5008569771733362  0.1224961830329462
  0.2535912796412345  0.5082516540980729  0.6948407300802140
  0.2446206914143016  0.9932213111971070  0.4366523477675255
  0.2529996373085336  0.5094376533647035  0.4435216054835643
  0.9979639703069850  0.9954908081356986  0.5051611195438872
  0.9953834908970014  0.2501912419757298  0.5038410553098864
  0.9897474532931809  0.9903134700839633  0.2457486271013030
  0.0064532344927994  0.5063903096573540  0.0049719637563649
  0.7493875858126947  0.0088118409620056  0.8204111376520739
  0.7562166693313237  0.5043327112646510  0.8160322843269072
  0.7404567270221739  0.7442139414349834  0.8126074620700853
  0.7567548341709034  0.0097972516299592  0.5633331755817120
  0.7548555503660751  0.2511775736242053  0.5609684718579225
  0.7590063085873850  0.4992790773032482  0.3137091220901478
  0.7589372659090963  0.5000772750683807  0.0588350856622928
  0.5078798960801076  0.5116172237491103  0.8810309745354492
  0.4983371665182356  0.7470875833536520  0.8734167479163852
  0.4980740127735468  0.5030222574221689  0.6233216130905699
  0.4939219620417374  0.7441100085496908  0.6252661575848937
  0.5073626843341477  0.2528156103091110  0.3780995386776451
  0.5030536592005057  0.5066729301593936  0.3801300251092544
  0.5037275474907696  0.9930488816442533  0.1241972931115061
  0.4937265216029181  0.7480670100585841  0.1190767459510692
  0.2551707149685778  0.9959906066999701  0.9313802243664544
  0.2429622696536846  0.2537335228886464  0.9393955466786601
  0.2503812299763810  0.5046953728572865  0.9437709985883572
  0.2520506992372379  0.7442718253366095  0.9358348791180782
  0.2446886146969096  0.9915839490737239  0.6851934693809164
  0.2502899193965167  0.7469598573910577  0.1901351463152026
  0.0050589842968775  0.0080985769748343  0.7503635846051646
  0.9973471785085262  0.2540777745646782  0.7546241458327689
  0.9998716048421878  0.4945346952868677  0.7495615748597043
  0.0001816487764315  0.4995285595704845  0.5037217854224949
  0.0007557334822155  0.5068185034932531  0.2512715361227362
  0.0066233114277101  0.7501811520545614  0.2506186352945911
  0.9973821450223818  0.2586852067438659  0.9975359035577239
  0.7466143007312105  0.4933988261982925  0.5602927204196217
  0.7502507789845738  0.0052664268213189  0.3124129620168529
  0.7398171101461639  0.9933732396396394  0.0581893209767698
  0.7500763081781386  0.7519050668953517  0.0553391159912117
  0.5124307711860544  0.9920378293602619  0.3686774489722351
  0.4891644326701796  0.7400643115844833  0.3622120439012647
  0.2510022852417859  0.7491541111925052  0.6855512825315602
  0.2456185571921039  0.2582769261006072  0.4438544929464316
  0.2443511739471335  0.7433847704215222  0.4348002796619252
  0.2479551344388628  0.5056721413717546  0.1897057129214250
  0.0088573739055063  0.7484986441933623  0.4960419422029206
  0.9937888520240988  0.7432694179144567  0.0019924541497606
  0.7466437615588980  0.7551194869601573  0.5650186427399048
  0.7484023058191651  0.7478424346460111  0.3014678909645832
  0.5053979121815145  0.2524994149729171  0.8778153322769711
  0.5003409234849638  0.9871949174782265  0.6162686077814273
  0.5018857468226917  0.2519716144056295  0.6171544571450213
  0.5057351533683753  0.2476289285253900  0.1274519139131981
  0.2426647187704142  0.2516595492029011  0.6885692517670930
  0.2542526164676521  0.9966196030457597  0.1927640077819696
  0.2521379818511455  0.2589083036300673  0.1930223389439942
  0.0034704839682813  0.7434779058135795  0.7487012789376774
  0.9928563463339852  0.2541735561536521  0.2558662740691854
  0.9901631277568047  0.9960265840412059  0.9947144471246814
 
  0.00000000E+00  0.00000000E+00  0.00000000E+00
  0.00000000E+00  0.00000000E+00  0.00000000E+00
  0.00000000E+00  0.00000000E+00  0.00000000E+00
  0.00000000E+00  0.00000000E+00  0.00000000E+00
  0.00000000E+00  0.00000000E+00  0.00000000E+00
  0.00000000E+00  0.00000000E+00  0.00000000E+00
  0.00000000E+00  0.00000000E+00  0.00000000E+00
  0.00000000E+00  0.00000000E+00  0.00000000E+00
  0.00000000E+00  0.00000000E+00  0.00000000E+00
  0.00000000E+00  0.00000000E+00  0.00000000E+00
  0.00000000E+00  0.00000000E+00  0.00000000E+00
  0.00000000E+00  0.00000000E+00  0.00000000E+00
  0.00000000E+00  0.00000000E+00  0.00000000E+00
  0.00000000E+00  0.00000000E+00  0.00000000E+00
  0.00000000E+00  0.00000000E+00  0.00000000E+00
  0.00000000E+00  0.00000000E+00  0.00000000E+00
  0.00000000E+00  0.00000000E+00  0.00000000E+00
  0.00000000E+00  0.00000000E+00  0.00000000E+00
  0.00000000E+00  0.00000000E+00  0.00000000E+00
  0.00000000E+00  0.00000000E+00  0.00000000E+00
  0.00000000E+00  0.00000000E+00  0.00000000E+00
  0.00000000E+00  0.00000000E+00  0.00000000E+00
  0.00000000E+00  0.00000000E+00  0.00000000E+00
  0.00000000E+00  0.00000000E+00  0.00000000E+00
  0.00000000E+00  0.00000000E+00  0.00000000E+00
  0.00000000E+00  0.00000000E+00  0.00000000E+00
  0.00000000E+00  0.00000000E+00  0.00000000E+00
  0.00000000E+00  0.00000000E+00  0.00000000E+00
  0.00000000E+00  0.00000000E+00  0.00000000E+00
  0.00000000E+00  0.00000000E+00  0.00000000E+00
  0.00000000E+00  0.00000000E+00  0.00000000E+00
  0.00000000E+00  0.00000000E+00  0.00000000E+00
  0.00000000E+00  0.00000000E+00  0.00000000E+00
  0.00000000E+00  0.00000000E+00  0.00000000E+00
  0.00000000E+00  0.00000000E+00  0.00000000E+00
  0.00000000E+00  0.00000000E+00  0.00000000E+00
  0.00000000E+00  0.00000000E+00  0.00000000E+00
  0.00000000E+00  0.00000000E+00  0.00000000E+00
  0.00000000E+00  0.00000000E+00  0.00000000E+00
  0.00000000E+00  0.00000000E+00  0.00000000E+00
  0.00000000E+00  0.00000000E+00  0.00000000E+00
  0.00000000E+00  0.00000000E+00  0.00000000E+00
  0.00000000E+00  0.00000000E+00  0.00000000E+00
  0.00000000E+00  0.00000000E+00  0.00000000E+00
  0.00000000E+00  0.00000000E+00  0.00000000E+00
  0.00000000E+00  0.00000000E+00  0.00000000E+00
  0.00000000E+00  0.00000000E+00  0.00000000E+00
  0.00000000E+00  0.00000000E+00  0.00000000E+00
  0.00000000E+00  0.00000000E+00  0.00000000E+00
  0.00000000E+00  0.00000000E+00  0.00000000E+00
  0.00000000E+00  0.00000000E+00  0.00000000E+00
  0.00000000E+00  0.00000000E+00  0.00000000E+00
  0.00000000E+00  0.00000000E+00  0.00000000E+00
  0.00000000E+00  0.00000000E+00  0.00000000E+00
  0.00000000E+00  0.00000000E+00  0.00000000E+00
  0.00000000E+00  0.00000000E+00  0.00000000E+00
  0.00000000E+00  0.00000000E+00  0.00000000E+00
  0.00000000E+00  0.00000000E+00  0.00000000E+00
  0.00000000E+00  0.00000000E+00  0.00000000E+00
  0.00000000E+00  0.00000000E+00  0.00000000E+00
  0.00000000E+00  0.00000000E+00  0.00000000E+00
  0.00000000E+00  0.00000000E+00  0.00000000E+00
  0.00000000E+00  0.00000000E+00  0.00000000E+00
  0.00000000E+00  0.00000000E+00  0.00000000E+00
