FeCrMn2_32sqsfcc                        
   4.00000000000000     
     0.7473829771067462    0.9626846967130942    1.9096094093831424
     0.7662547919590064    0.9112871007685472   -1.8916773926783155
    -0.7756667297568841    0.9543303638834995    0.0168585202559280
   Fe   Cr   Mn
     8     8    16
Direct
  0.9910600173546815  0.4930624287575266  0.0333949009975203
  0.9973565263069103  0.7517730787344553  0.7948347652777951
  0.0061403874549389  0.2460868412036943  0.7323227995664592
  1.0005905520316214  0.9923899860140709  0.5126673195941533
  0.7468990013272933  0.7350014488558330  0.5863888460638029
  0.2526618278450334  0.0019186398863852  0.1899033021938706
  0.7535002211472512  0.2325336872678012  0.5324837373617001
  0.7581590083703169  0.9813286038880392  0.8248489942581910
 -0.0001692999017627  0.4964008758995355  0.5383370191427920
  0.7471571677514235  0.7368933904504830  0.0790300850417010
  0.2538318068711351  0.2610957700945023  0.4398017632644896
  0.4938741832745773  0.5107047165169646  0.5020096725718438
  0.5040882220154640  0.2554855479590080  0.2205477537777045
  0.7448393408716392  0.4887701845277523  0.2925778440118796
  0.5013829500615073  0.2556249551650520  0.7207064826563754
  0.7513593893889879  0.9835571931410015  0.3266351023217339
  0.9948828024399952  0.7461635710875953  0.2999805288540614
  0.2425086380214824  0.7581201668426694  0.9861346880057172
  0.2477963017959010  0.7612183264640339  0.4847134610407570
  0.9924345054703203  0.2364042162707255  0.2278218172327519
  0.2360471944977853  0.5029312509654291  0.2540181432104590
  0.4885109401724620  0.7599516684152162  0.1905409028659034
  0.0171296138828956  0.0049917598431636  0.0008436503749947
  0.2560691640857966  0.2619237959138928  0.9466947333444711
  0.5035084918742847  0.5171332684401662  0.9942308461959856
  0.2546691186690568  0.5175397100757576  0.7652956106364305
  0.5028892777991498  0.7741641652904825  0.6936907399336791
  0.5075109715998880  0.0113037903513741  0.9092428024841754
  0.7486154045017547  0.2243449418211833  0.0273946937204833
  0.2575087434617007  0.0124153059521580  0.6858082508742690
  0.7472803678344000  0.4826827223898493  0.7949748657914650
  0.4999071617221149  0.0060839915142012  0.4121238773324157
 
  0.00000000E+00  0.00000000E+00  0.00000000E+00
  0.00000000E+00  0.00000000E+00  0.00000000E+00
  0.00000000E+00  0.00000000E+00  0.00000000E+00
  0.00000000E+00  0.00000000E+00  0.00000000E+00
  0.00000000E+00  0.00000000E+00  0.00000000E+00
  0.00000000E+00  0.00000000E+00  0.00000000E+00
  0.00000000E+00  0.00000000E+00  0.00000000E+00
  0.00000000E+00  0.00000000E+00  0.00000000E+00
  0.00000000E+00  0.00000000E+00  0.00000000E+00
  0.00000000E+00  0.00000000E+00  0.00000000E+00
  0.00000000E+00  0.00000000E+00  0.00000000E+00
  0.00000000E+00  0.00000000E+00  0.00000000E+00
  0.00000000E+00  0.00000000E+00  0.00000000E+00
  0.00000000E+00  0.00000000E+00  0.00000000E+00
  0.00000000E+00  0.00000000E+00  0.00000000E+00
  0.00000000E+00  0.00000000E+00  0.00000000E+00
  0.00000000E+00  0.00000000E+00  0.00000000E+00
  0.00000000E+00  0.00000000E+00  0.00000000E+00
  0.00000000E+00  0.00000000E+00  0.00000000E+00
  0.00000000E+00  0.00000000E+00  0.00000000E+00
  0.00000000E+00  0.00000000E+00  0.00000000E+00
  0.00000000E+00  0.00000000E+00  0.00000000E+00
  0.00000000E+00  0.00000000E+00  0.00000000E+00
  0.00000000E+00  0.00000000E+00  0.00000000E+00
  0.00000000E+00  0.00000000E+00  0.00000000E+00
  0.00000000E+00  0.00000000E+00  0.00000000E+00
  0.00000000E+00  0.00000000E+00  0.00000000E+00
  0.00000000E+00  0.00000000E+00  0.00000000E+00
  0.00000000E+00  0.00000000E+00  0.00000000E+00
  0.00000000E+00  0.00000000E+00  0.00000000E+00
  0.00000000E+00  0.00000000E+00  0.00000000E+00
  0.00000000E+00  0.00000000E+00  0.00000000E+00
