FeNiCo2_32sqsfcc                        
   4.00000000000000     
     0.8851834393368316    0.8828468944015438    1.7708923684088489
     0.8863328936852648    0.8826494434196568   -1.7713689310441090
    -0.8852275080264213    0.8822175454692176    0.0003365101780021
   Fe   Ni   Co
     8     8    16
Direct
  0.9981471025937559  0.4982689324013500  0.0107840224936109
  0.0026820103882281  0.7513695415265239  0.7541592158750667
  0.0050993743834140  0.2534527585173753  0.7509191478518298
  0.0017946704580820  0.0028982384807882  0.4971639919159705
  0.7452903586738062  0.7456302320887873  0.4957801383441811
  0.2526742867032337  0.0001475444833060  0.2450083277725312
  0.7502337987053038  0.2526274172694920  0.4917864168456609
  0.7472926459081187  0.9970312836578102  0.7585909083148655
  0.0011789402567619  0.5016446810350542  0.5046264977230410
  0.7496816185910413  0.7494321581171574  0.0002048437291907
  0.2496956521383997  0.2506099649523208  0.4970233904781941
  0.4999104813679783  0.5009831606457015  0.5010627251190720
  0.5005913781051404  0.2497364487391515  0.2468147017885313
  0.7498551106350531  0.5003542225900357  0.2531337756740942
  0.4996800191111480  0.2499502032319741  0.7496115694460590
  0.7498710411115849  0.9997941003454157  0.2518248636148024
  0.9993852843410781  0.7493643666876345  0.2520030498643815
  0.2523230732203472  0.7489134654377071  0.9970736873596804
  0.2510406169198368  0.7481875008055680  0.4974245035210952
  0.0019146603653833  0.2476678284496968  0.2480748760642098
  0.2493828270259749  0.4986739287837841  0.2514137643182970
  0.4970231868699359  0.7512312698177787  0.2482255649703398
  0.9988642625427783  0.9992916530503188  0.0003860133862067
  0.2487997838093278  0.2506390115929735  0.9954208144106702
  0.4994563485506329  0.5014383003252327  0.0012627346835217
  0.2532096336919074  0.5035893536629846  0.7456989747857419
  0.4967958036166301  0.7470037296722687  0.7531838642269129
  0.4999862149632652  0.0004091186964818  0.0009560837488947
  0.7473320755482243  0.2493378207295030  0.9942506946220583
  0.2536835160277327  0.0031160108372432  0.7478143143868573
  0.7478537482860511  0.5002683149559549  0.7563566955449810
  0.4992704750898510  0.9969374384126258  0.5019598271194775
 
  0.00000000E+00  0.00000000E+00  0.00000000E+00
  0.00000000E+00  0.00000000E+00  0.00000000E+00
  0.00000000E+00  0.00000000E+00  0.00000000E+00
  0.00000000E+00  0.00000000E+00  0.00000000E+00
  0.00000000E+00  0.00000000E+00  0.00000000E+00
  0.00000000E+00  0.00000000E+00  0.00000000E+00
  0.00000000E+00  0.00000000E+00  0.00000000E+00
  0.00000000E+00  0.00000000E+00  0.00000000E+00
  0.00000000E+00  0.00000000E+00  0.00000000E+00
  0.00000000E+00  0.00000000E+00  0.00000000E+00
  0.00000000E+00  0.00000000E+00  0.00000000E+00
  0.00000000E+00  0.00000000E+00  0.00000000E+00
  0.00000000E+00  0.00000000E+00  0.00000000E+00
  0.00000000E+00  0.00000000E+00  0.00000000E+00
  0.00000000E+00  0.00000000E+00  0.00000000E+00
  0.00000000E+00  0.00000000E+00  0.00000000E+00
  0.00000000E+00  0.00000000E+00  0.00000000E+00
  0.00000000E+00  0.00000000E+00  0.00000000E+00
  0.00000000E+00  0.00000000E+00  0.00000000E+00
  0.00000000E+00  0.00000000E+00  0.00000000E+00
  0.00000000E+00  0.00000000E+00  0.00000000E+00
  0.00000000E+00  0.00000000E+00  0.00000000E+00
  0.00000000E+00  0.00000000E+00  0.00000000E+00
  0.00000000E+00  0.00000000E+00  0.00000000E+00
  0.00000000E+00  0.00000000E+00  0.00000000E+00
  0.00000000E+00  0.00000000E+00  0.00000000E+00
  0.00000000E+00  0.00000000E+00  0.00000000E+00
  0.00000000E+00  0.00000000E+00  0.00000000E+00
  0.00000000E+00  0.00000000E+00  0.00000000E+00
  0.00000000E+00  0.00000000E+00  0.00000000E+00
  0.00000000E+00  0.00000000E+00  0.00000000E+00
  0.00000000E+00  0.00000000E+00  0.00000000E+00
