FeNiCr2_32sqsfcc                        
   4.00000000000000     
     0.7454092793576828    0.9131348421198708    1.9201683230150699
     0.7222111425825812    1.0211042508639574   -1.9675310665227457
    -0.7501616845943290    0.9801170065356167   -0.0303963596685945
   Fe   Ni   Cr
     8     8    16
Direct
  0.0009166252719805  0.5126974205708150  0.9844173265333275
  0.0169877628383730  0.7598964076058230  0.6763111864077217
  0.9695043162963756  0.2546248075511969  0.8214332999041415
  0.0063840200232334  0.0042616940435435  0.4392938841461299
  0.7625921167810855  0.7491915204433469  0.4561626138422999
  0.2601993290479794  0.9968978445742257  0.2173287120951156
  0.7328831236288286  0.2445727948214999  0.5629312249212873
  0.7624377495818250  0.9974243913481966  0.7136024078840357
  0.0014629526827548  0.5036052487354563  0.4823472480252502
  0.7592943212742587  0.7415690001935912  0.9581667221347486
  0.2179515542438488  0.2530654617214680  0.5425027223984937
  0.4951608990570779  0.4900349469686184  0.5388200421155298
  0.4729565191598619  0.2390417791569786  0.3481013823587659
  0.7434741176192278  0.4942158580214484  0.2610337019633020
  0.4838980676656617  0.2409574135771651  0.8433988321594538
  0.7697160644652250  0.0131433189495981  0.2047959817816230
  0.0076929557142310  0.7578311321238287  0.1834266825283613
  0.2624071165994605  0.7575937311635375  0.9702635523369247
  0.2642908209680404  0.7515498094411831  0.4757664909016052
  0.9903728614367384  0.2642016104989318  0.2986544026561264
  0.2638787248304443  0.5127016228768047  0.2257411546047779
  0.5170432586644149  0.7476821369406189  0.2447749826182705
  0.0079702063237116  0.0072955743507703  0.9328972795923571
  0.2278414536793290  0.2404274983231711  0.0386905259651866
  0.4935300190133393  0.4811907305893461  0.0432942028618271
  0.2387256315068336  0.4927955605146080  0.7448213661464254
  0.5107650610794299  0.7367003352574347  0.7530968140790885
  0.5160917724576417  0.9952817296879247  0.9982928588744234
  0.7272968036970016  0.2588915913132058  0.0703487094529991
  0.2568357423866165  0.0060559831233822  0.7185462799963668
  0.7517341645775961  0.5044098239901887  0.7482523887750541
  0.5077038674275874  0.9901912215221067  0.5024850199389662
 
  0.00000000E+00  0.00000000E+00  0.00000000E+00
  0.00000000E+00  0.00000000E+00  0.00000000E+00
  0.00000000E+00  0.00000000E+00  0.00000000E+00
  0.00000000E+00  0.00000000E+00  0.00000000E+00
  0.00000000E+00  0.00000000E+00  0.00000000E+00
  0.00000000E+00  0.00000000E+00  0.00000000E+00
  0.00000000E+00  0.00000000E+00  0.00000000E+00
  0.00000000E+00  0.00000000E+00  0.00000000E+00
  0.00000000E+00  0.00000000E+00  0.00000000E+00
  0.00000000E+00  0.00000000E+00  0.00000000E+00
  0.00000000E+00  0.00000000E+00  0.00000000E+00
  0.00000000E+00  0.00000000E+00  0.00000000E+00
  0.00000000E+00  0.00000000E+00  0.00000000E+00
  0.00000000E+00  0.00000000E+00  0.00000000E+00
  0.00000000E+00  0.00000000E+00  0.00000000E+00
  0.00000000E+00  0.00000000E+00  0.00000000E+00
  0.00000000E+00  0.00000000E+00  0.00000000E+00
  0.00000000E+00  0.00000000E+00  0.00000000E+00
  0.00000000E+00  0.00000000E+00  0.00000000E+00
  0.00000000E+00  0.00000000E+00  0.00000000E+00
  0.00000000E+00  0.00000000E+00  0.00000000E+00
  0.00000000E+00  0.00000000E+00  0.00000000E+00
  0.00000000E+00  0.00000000E+00  0.00000000E+00
  0.00000000E+00  0.00000000E+00  0.00000000E+00
  0.00000000E+00  0.00000000E+00  0.00000000E+00
  0.00000000E+00  0.00000000E+00  0.00000000E+00
  0.00000000E+00  0.00000000E+00  0.00000000E+00
  0.00000000E+00  0.00000000E+00  0.00000000E+00
  0.00000000E+00  0.00000000E+00  0.00000000E+00
  0.00000000E+00  0.00000000E+00  0.00000000E+00
  0.00000000E+00  0.00000000E+00  0.00000000E+00
  0.00000000E+00  0.00000000E+00  0.00000000E+00
