Ternary_NiCrPdSQSfcc                    
   4.00000000000000     
     2.6798447307758706    0.9321911674296082   -0.9321911674296082
    -2.6798589052698314    0.9321512620227846   -0.9321512620227846
     0.0000000000000000    0.4699054923543683    0.4699054923543683
   Ni   Cr   Pd
     8     8     8
Direct
  0.8341374350693754  0.1692813696027140  0.0000000000000000
  0.4261058500232013  0.0844421202496956 -0.0000000000000000
  0.7162341100019813  0.5513310192049599  0.5000000000000000
  0.2420712129442869  0.2428497503749585  0.0000000000000000
  0.9967167581795449  0.0036191215977897  0.0000000000000000
  0.5569960255788687  0.7161872581918337  0.5000000000000000
  0.0307881061272596  0.2005005486496593  0.5000000000000000
  0.1795599840931450  0.8382712293213007 -0.0000000000000000
  0.9045117244555269  0.5713472957386277  0.0000000000000000
  0.8737581765414556  0.3688370384081026  0.5000000000000000
  0.6290746744026449  0.1292443617137781  0.5000000000000000
  0.7522757505117210  0.7596450882110598 -0.0000000000000000
  0.4478333995085482  0.2855318830815650  0.5000000000000000
  0.8027075523417952  0.9597144025711419  0.5000000000000000
  0.0630263048340602  0.3987557356440942  0.0000000000000000
  0.3782262754353253  0.8865840374685410  0.5000000000000000
  0.6619407714067584  0.3339400458395567  0.0000000000000000
  0.9587114651771880  0.7884470968811882  0.5000000000000000
  0.5060957135202264  0.5009872492295812  0.0000000000000000
  0.2128656434417340  0.0434939060179298  0.5000000000000000
  0.5946983887895415  0.9267071570331539 -0.0000000000000000
  0.3416221876508257  0.6754286155318365 -0.0000000000000000
  0.2763938198806517  0.4460816129266851  0.5000000000000000
  0.1136486700843339  0.6187720565102254  0.5000000000000000
 
  0.00000000E+00  0.00000000E+00  0.00000000E+00
  0.00000000E+00  0.00000000E+00  0.00000000E+00
  0.00000000E+00  0.00000000E+00  0.00000000E+00
  0.00000000E+00  0.00000000E+00  0.00000000E+00
  0.00000000E+00  0.00000000E+00  0.00000000E+00
  0.00000000E+00  0.00000000E+00  0.00000000E+00
  0.00000000E+00  0.00000000E+00  0.00000000E+00
  0.00000000E+00  0.00000000E+00  0.00000000E+00
  0.00000000E+00  0.00000000E+00  0.00000000E+00
  0.00000000E+00  0.00000000E+00  0.00000000E+00
  0.00000000E+00  0.00000000E+00  0.00000000E+00
  0.00000000E+00  0.00000000E+00  0.00000000E+00
  0.00000000E+00  0.00000000E+00  0.00000000E+00
  0.00000000E+00  0.00000000E+00  0.00000000E+00
  0.00000000E+00  0.00000000E+00  0.00000000E+00
  0.00000000E+00  0.00000000E+00  0.00000000E+00
  0.00000000E+00  0.00000000E+00  0.00000000E+00
  0.00000000E+00  0.00000000E+00  0.00000000E+00
  0.00000000E+00  0.00000000E+00  0.00000000E+00
  0.00000000E+00  0.00000000E+00  0.00000000E+00
  0.00000000E+00  0.00000000E+00  0.00000000E+00
  0.00000000E+00  0.00000000E+00  0.00000000E+00
  0.00000000E+00  0.00000000E+00  0.00000000E+00
  0.00000000E+00  0.00000000E+00  0.00000000E+00
