FeCoPd2_sqsbcc                          
   3.00000000000000     
     0.9439003075706169   -0.9435770445684684    2.8408324581889492
     0.9400388459829992    2.8301415269893901   -0.9458465621745412
    -2.8261838779409381   -0.9421800877139442   -0.9483296452327097
   Fe   Co   Mn
     8     8    16
Direct
  0.7520988225950550  0.4987456507420684  0.7499040853449920
  0.4973205424705934  0.7487450516522415  0.2468390474824822
  0.2441497547860824  0.7452085708017836  0.4968738733828836
  0.2479997125133009  0.7470036292299745  0.0009134392561461
  0.7524623595463995  0.5010745904530102  0.2481820328108592
  0.9974457480194667  0.2460214681051458  0.7453572850203481
  0.0057168182943855  0.5063280567356785  0.5048496399556619
  0.9975129914770798  0.4972514921287532  0.9994763588133785
  0.2542842218688315  0.0009587560658124  0.2510992811340883
  0.0032614052885163  0.0029162477831156  0.0033703344456397
  0.7517149944130976  0.2508700562997682  0.5002072167539210
  0.4999899541348521  0.2505017856327819  0.7506019557143514
  0.0015885080703123  0.0044498412013435  0.4990335054507743
  0.2502788681455043  0.2491349384360171  0.4992783668365732
  0.2532499216485939  0.5041394843993343  0.2540374771554376
  0.0015385542155609  0.7488475673854036  0.2509471394760355
  0.2493976791786646  0.4984519974102176  0.7465306875347683
  0.7452624843197426  0.9991325494856802  0.2428593618517213
  0.7586719608033360  0.0066195082569672  0.7579969058382258
  0.5030809691815037  0.2499339238712523  0.2475700461601469
  0.5005046713620191  0.5004764430694311  0.5001273278305334
  0.4998639726438409  0.5035209000770668  0.0050205627110743
  0.4968248332725696  0.0059935299614143  0.0035080177321457
  0.7452247198501921  0.7440201796965039  0.4995950663928438
  0.7508785873518709  0.7503176908274674  0.0010125909139525
  0.2468167185441904  0.0029591659593496  0.7493341626259300
  0.5042938375049779  0.7461614873631789  0.7483379545781097
  0.0008511849614756  0.2526881243773555  0.2543845872296576
  0.9975032391432733  0.7512663622282054  0.7480724294195668
  0.5001926556376725  0.0003586739140551  0.5020409180921200
  0.2488622618912044  0.2475440602974326  0.9980824103464414
  0.7411570468658413  0.2383582161521827  0.9945559317091972
 
  0.00000000E+00  0.00000000E+00  0.00000000E+00
  0.00000000E+00  0.00000000E+00  0.00000000E+00
  0.00000000E+00  0.00000000E+00  0.00000000E+00
  0.00000000E+00  0.00000000E+00  0.00000000E+00
  0.00000000E+00  0.00000000E+00  0.00000000E+00
  0.00000000E+00  0.00000000E+00  0.00000000E+00
  0.00000000E+00  0.00000000E+00  0.00000000E+00
  0.00000000E+00  0.00000000E+00  0.00000000E+00
  0.00000000E+00  0.00000000E+00  0.00000000E+00
  0.00000000E+00  0.00000000E+00  0.00000000E+00
  0.00000000E+00  0.00000000E+00  0.00000000E+00
  0.00000000E+00  0.00000000E+00  0.00000000E+00
  0.00000000E+00  0.00000000E+00  0.00000000E+00
  0.00000000E+00  0.00000000E+00  0.00000000E+00
  0.00000000E+00  0.00000000E+00  0.00000000E+00
  0.00000000E+00  0.00000000E+00  0.00000000E+00
  0.00000000E+00  0.00000000E+00  0.00000000E+00
  0.00000000E+00  0.00000000E+00  0.00000000E+00
  0.00000000E+00  0.00000000E+00  0.00000000E+00
  0.00000000E+00  0.00000000E+00  0.00000000E+00
  0.00000000E+00  0.00000000E+00  0.00000000E+00
  0.00000000E+00  0.00000000E+00  0.00000000E+00
  0.00000000E+00  0.00000000E+00  0.00000000E+00
  0.00000000E+00  0.00000000E+00  0.00000000E+00
  0.00000000E+00  0.00000000E+00  0.00000000E+00
  0.00000000E+00  0.00000000E+00  0.00000000E+00
  0.00000000E+00  0.00000000E+00  0.00000000E+00
  0.00000000E+00  0.00000000E+00  0.00000000E+00
  0.00000000E+00  0.00000000E+00  0.00000000E+00
  0.00000000E+00  0.00000000E+00  0.00000000E+00
  0.00000000E+00  0.00000000E+00  0.00000000E+00
  0.00000000E+00  0.00000000E+00  0.00000000E+00
