NiCoPd_bccsqs                           
   3.00000000000000     
     1.7398136176133256   -1.7401043926384223   -0.0015736283023082
    -1.7418449447690716   -0.0048128512739384    2.4428870993069158
    -1.3048035614319118   -1.3013029364592734   -1.8361502601758031
   Ni   Co   Pd
    12    12    12
Direct
  0.8381677858535973  0.1600783993053881  0.2237280487469425
  0.8482606927090031  0.1734497974330712  0.5499209287116092
  0.3273032909521719  0.1677607413433719  0.2203126060920203
  0.8402085103875216  0.6719799262372769  0.2207528087803662
  0.4881580061998566  0.4886020898943498  0.6528480333440405
  0.0187955988251214  0.0059913526143172  0.6658713468853412
  0.1713409900367749  0.3286634858451484  0.7685445325128464
  0.0113603945866484  0.0029249404923382  0.0079810502742052
  0.6797194469000908  0.8407785141612328  0.1137108305022443
  0.8469700724598251  0.6772911392697043  0.8982420072344247
  0.0090479691113613  0.0036773640010979  0.3319057491325136
  0.4928363387510714  0.0099947331355603  0.0036199592408897
  0.1764110295910349  0.3306295941413856  0.1192118730346108
  0.3306268446824727  0.6675291854276726  0.2237188554644613
  0.6520168369007918  0.3285372508014704  0.4341464468885888
  0.0010791380715976  0.4869834067534187  0.6615756465598470
  0.4913134849180326  0.4850883295250818  0.3305799376793089
  0.6500299583751793  0.3246289752003444  0.1184366394023041
  0.3217422418428166  0.1681141555965435  0.5501348661173611
  0.1677240211798648  0.3217588805188375  0.4404983842480578
  0.3204928130312273  0.1648523688328407  0.8974050587327532
  0.1629345587722477  0.8455413723404289  0.7923270296223872
  0.1597878850846844  0.8385596549598492  0.4361565972646531
  0.1598509787704868  0.8388086807060128  0.1161791485620013
  0.6761991498967185  0.8338843722024148  0.4361332693375537
  0.0007035706349300  0.5050819989920508  0.0004948426376269
  0.3337479123947855  0.6779985378811377  0.8962171848018681
  0.6628122424370810  0.3374060657538285  0.7666143357756344
  0.4967677589638462  0.0030015671736719  0.3261059732938829
 -0.0096595342180222  0.4838594964310985  0.3278646578588859
  0.5017336648670840  0.5026563013849500  0.0077639884692354
  0.4849660922690960  0.0006547905818239  0.6697774200404566
  0.8442294910524438  0.1691464384267002  0.8949828626794883
  0.3253407654300006  0.6590541062258022  0.5490191662739791
  0.6772709132419922  0.8342382465969725  0.7866216625858742
  0.8397090850365645  0.6607937398128060  0.5605962512117357
 
  0.00000000E+00  0.00000000E+00  0.00000000E+00
  0.00000000E+00  0.00000000E+00  0.00000000E+00
  0.00000000E+00  0.00000000E+00  0.00000000E+00
  0.00000000E+00  0.00000000E+00  0.00000000E+00
  0.00000000E+00  0.00000000E+00  0.00000000E+00
  0.00000000E+00  0.00000000E+00  0.00000000E+00
  0.00000000E+00  0.00000000E+00  0.00000000E+00
  0.00000000E+00  0.00000000E+00  0.00000000E+00
  0.00000000E+00  0.00000000E+00  0.00000000E+00
  0.00000000E+00  0.00000000E+00  0.00000000E+00
  0.00000000E+00  0.00000000E+00  0.00000000E+00
  0.00000000E+00  0.00000000E+00  0.00000000E+00
  0.00000000E+00  0.00000000E+00  0.00000000E+00
  0.00000000E+00  0.00000000E+00  0.00000000E+00
  0.00000000E+00  0.00000000E+00  0.00000000E+00
  0.00000000E+00  0.00000000E+00  0.00000000E+00
  0.00000000E+00  0.00000000E+00  0.00000000E+00
  0.00000000E+00  0.00000000E+00  0.00000000E+00
  0.00000000E+00  0.00000000E+00  0.00000000E+00
  0.00000000E+00  0.00000000E+00  0.00000000E+00
  0.00000000E+00  0.00000000E+00  0.00000000E+00
  0.00000000E+00  0.00000000E+00  0.00000000E+00
  0.00000000E+00  0.00000000E+00  0.00000000E+00
  0.00000000E+00  0.00000000E+00  0.00000000E+00
  0.00000000E+00  0.00000000E+00  0.00000000E+00
  0.00000000E+00  0.00000000E+00  0.00000000E+00
  0.00000000E+00  0.00000000E+00  0.00000000E+00
  0.00000000E+00  0.00000000E+00  0.00000000E+00
  0.00000000E+00  0.00000000E+00  0.00000000E+00
  0.00000000E+00  0.00000000E+00  0.00000000E+00
  0.00000000E+00  0.00000000E+00  0.00000000E+00
  0.00000000E+00  0.00000000E+00  0.00000000E+00
  0.00000000E+00  0.00000000E+00  0.00000000E+00
  0.00000000E+00  0.00000000E+00  0.00000000E+00
  0.00000000E+00  0.00000000E+00  0.00000000E+00
  0.00000000E+00  0.00000000E+00  0.00000000E+00
