Ternary_FeNiCoSQSfcc                    
   4.00000000000000     
     2.6624978557882257    0.8915746386191504   -0.8915746386191504
    -2.6599648334869928    0.8877769614070067   -0.8877769614070067
     0.0000000000000000    0.4414657819180318    0.4414657819180318
   Fe   Ni   Co
     8     8     8
Direct
  0.8326717681329409  0.1653319895790549 -0.0000000000000000
  0.4173928510716983  0.0867688584735552 -0.0000000000000000
  0.7065970036407828  0.5416432235618076  0.5000000000000000
  0.2574105042101275  0.2519438500389596 -0.0000000000000000
  0.9965357123567048  0.9964954322656500  0.0000000000000000
  0.5424328012544670  0.7067082165386110  0.5000000000000000
  0.0462487970790315  0.2145656582048528  0.5000000000000000
  0.1640004003362310  0.8315714542977674 -0.0000000000000000
  0.9167404222476224  0.5827888977454775  0.0000000000000000
  0.8746476490704419  0.3743511305855964  0.5000000000000000
  0.6236276224634688  0.1222826398202456  0.5000000000000000
  0.7509065689915768  0.7494981596190836  0.0000000000000000
  0.4635711791005367  0.2950317319737358  0.5000000000000000
  0.7892505886140756  0.9575693845537279  0.5000000000000000
  0.0842839345030362  0.4194025023031639 -0.0000000000000000
  0.3756472394171963  0.8764079810565456  0.5000000000000000
  0.6702990213189094  0.3317413944758265 -0.0000000000000000
  0.9581100828433023  0.7896403924514986  0.5000000000000000
  0.4960548972477714  0.4973730790259371 -0.0000000000000000
  0.2069478675821992  0.0408666884909064  0.5000000000000000
  0.5771449836336191  0.9119340587426769  0.0000000000000000
  0.3315185367585458  0.6679217412787289 -0.0000000000000000
  0.2921528380009066  0.4624763968420386  0.5000000000000000
  0.1258067301247845  0.6256851380745444  0.5000000000000000
 
  0.00000000E+00  0.00000000E+00  0.00000000E+00
  0.00000000E+00  0.00000000E+00  0.00000000E+00
  0.00000000E+00  0.00000000E+00  0.00000000E+00
  0.00000000E+00  0.00000000E+00  0.00000000E+00
  0.00000000E+00  0.00000000E+00  0.00000000E+00
  0.00000000E+00  0.00000000E+00  0.00000000E+00
  0.00000000E+00  0.00000000E+00  0.00000000E+00
  0.00000000E+00  0.00000000E+00  0.00000000E+00
  0.00000000E+00  0.00000000E+00  0.00000000E+00
  0.00000000E+00  0.00000000E+00  0.00000000E+00
  0.00000000E+00  0.00000000E+00  0.00000000E+00
  0.00000000E+00  0.00000000E+00  0.00000000E+00
  0.00000000E+00  0.00000000E+00  0.00000000E+00
  0.00000000E+00  0.00000000E+00  0.00000000E+00
  0.00000000E+00  0.00000000E+00  0.00000000E+00
  0.00000000E+00  0.00000000E+00  0.00000000E+00
  0.00000000E+00  0.00000000E+00  0.00000000E+00
  0.00000000E+00  0.00000000E+00  0.00000000E+00
  0.00000000E+00  0.00000000E+00  0.00000000E+00
  0.00000000E+00  0.00000000E+00  0.00000000E+00
  0.00000000E+00  0.00000000E+00  0.00000000E+00
  0.00000000E+00  0.00000000E+00  0.00000000E+00
  0.00000000E+00  0.00000000E+00  0.00000000E+00
  0.00000000E+00  0.00000000E+00  0.00000000E+00
