FeNiCo_bccsqs                           
   3.00000000000000     
     1.6842328443030929   -1.6865030484842409    0.0021438071544024
    -1.6733869811859281    0.0081013381673835    2.3652235268357864
    -1.2436245499203262   -1.2430843023895797   -1.7691711659507476
   Fe   Ni   Co
    12    12    12
Direct
  0.8312474910542769  0.1718348626749757  0.2210674770041916
  0.8276979159446591  0.1679305891039906  0.5569099039034965
  0.3441764126498993  0.1749737915240024  0.2284880817462944
  0.8303186512745729  0.6609459746277272  0.2236097707335913
  0.5002767758783129  0.5005503327593892  0.6641985194057882
  0.0013333527125422  0.9950952050747207  0.6625820583589689
  0.1643177214529586  0.3315958091414142  0.7815182148326444
  0.0045075217439077  0.0023954912948634  0.9967511001836475
  0.6589952363196327  0.8269756745445507  0.1086160635219859
  0.8397158931911276  0.6663651286502740  0.8853753305245364
  0.0014245366773629  0.0001113016216953  0.3325858067315375
  0.4952580690321104  0.9944147999649685  0.9895514469432984
  0.1663430553730990  0.3323886999147838  0.1134121736206855
  0.3320607008669088  0.6642131431129058  0.2214570602845649
  0.6702697063011137  0.3376546032756573  0.4470606063843733
  0.0012440155312849  0.5009586017477945  0.6675793297868258
  0.4976736896951494  0.5039192071716758  0.3347210579458245
  0.6663697046807644  0.3339697096051141  0.1120895062824948
  0.3356648041832375  0.1666925406360400  0.5555478691765221
  0.1664083566952897  0.3326260424348209  0.4456245802197938
  0.3366306658924687  0.1674463952274224  0.8895869745295368
  0.1685120662110718  0.8333667610576079  0.7749921033190675
  0.1673745278092230  0.8322500690065048  0.4427852747276898
  0.1709664311009187  0.8336243143073451  0.1113682186222084
  0.6599119398374225  0.8311430658163386  0.4459539853477161
  0.9985094442061069  0.4981526548466423  0.0044029316236616
  0.3271405486402919  0.6622085899351696  0.8861448341873006
  0.6685414387023741  0.3370479364273838  0.7842527136526125
  0.5000664493663411  0.9974858817368351  0.3319966059743173
  0.0032889253618275  0.5001735258906403  0.3369759704686486
  0.4968278831639217  0.4976334688658151  0.9997822535462915
  0.4988959064037330  0.0013079905282803  0.6630782837438834
  0.8317545790757692  0.1689598495853481  0.8897173894708229
  0.3372564459017939  0.6695706678450473  0.5597816166231582
  0.6659661802146741  0.8357339558989553  0.7751580144404079
  0.8330529568538587  0.6682833641432784  0.5552768721316341
 
  0.00000000E+00  0.00000000E+00  0.00000000E+00
  0.00000000E+00  0.00000000E+00  0.00000000E+00
  0.00000000E+00  0.00000000E+00  0.00000000E+00
  0.00000000E+00  0.00000000E+00  0.00000000E+00
  0.00000000E+00  0.00000000E+00  0.00000000E+00
  0.00000000E+00  0.00000000E+00  0.00000000E+00
  0.00000000E+00  0.00000000E+00  0.00000000E+00
  0.00000000E+00  0.00000000E+00  0.00000000E+00
  0.00000000E+00  0.00000000E+00  0.00000000E+00
  0.00000000E+00  0.00000000E+00  0.00000000E+00
  0.00000000E+00  0.00000000E+00  0.00000000E+00
  0.00000000E+00  0.00000000E+00  0.00000000E+00
  0.00000000E+00  0.00000000E+00  0.00000000E+00
  0.00000000E+00  0.00000000E+00  0.00000000E+00
  0.00000000E+00  0.00000000E+00  0.00000000E+00
  0.00000000E+00  0.00000000E+00  0.00000000E+00
  0.00000000E+00  0.00000000E+00  0.00000000E+00
  0.00000000E+00  0.00000000E+00  0.00000000E+00
  0.00000000E+00  0.00000000E+00  0.00000000E+00
  0.00000000E+00  0.00000000E+00  0.00000000E+00
  0.00000000E+00  0.00000000E+00  0.00000000E+00
  0.00000000E+00  0.00000000E+00  0.00000000E+00
  0.00000000E+00  0.00000000E+00  0.00000000E+00
  0.00000000E+00  0.00000000E+00  0.00000000E+00
  0.00000000E+00  0.00000000E+00  0.00000000E+00
  0.00000000E+00  0.00000000E+00  0.00000000E+00
  0.00000000E+00  0.00000000E+00  0.00000000E+00
  0.00000000E+00  0.00000000E+00  0.00000000E+00
  0.00000000E+00  0.00000000E+00  0.00000000E+00
  0.00000000E+00  0.00000000E+00  0.00000000E+00
  0.00000000E+00  0.00000000E+00  0.00000000E+00
  0.00000000E+00  0.00000000E+00  0.00000000E+00
  0.00000000E+00  0.00000000E+00  0.00000000E+00
  0.00000000E+00  0.00000000E+00  0.00000000E+00
  0.00000000E+00  0.00000000E+00  0.00000000E+00
  0.00000000E+00  0.00000000E+00  0.00000000E+00
