Ternary_CrCoMnSQSfcc                    
   4.00000000000000     
     2.6840516824204856    0.8768808777487760   -0.8768808777487760
    -2.6822455856312843    0.8742972959088845   -0.8742972959088845
     0.0000000000000000    0.4322063241734534    0.4322063241734534
   Cr   Co   Mn
     8     8     8
Direct
  0.8297941634456409  0.1651748340579671 -0.0000000000000000
  0.4185604826273570  0.0864797912356800 -0.0000000000000000
  0.7081929687563555  0.5460186312695589  0.5000000000000000
  0.2588055046219518  0.2491671480235733  0.0000000000000000
  0.9917640297938121  0.9954928993901228 -0.0000000000000000
  0.5451056173529492  0.7064669482225132  0.5000000000000000
  0.0476792352591012  0.2179483480182181  0.5000000000000000
  0.1680977261126283  0.8307651030236475 -0.0000000000000000
  0.9174660905143078  0.5838205747098697  0.0000000000000000
  0.8747626714041791  0.3743946613499942  0.5000000000000000
  0.6228124355200432  0.1206721969996639  0.5000000000000000
  0.7522589038827634  0.7515305944544395 -0.0000000000000000
  0.4653609902565642  0.2954261977025741  0.5000000000000000
  0.7876124720337233  0.9587045837484134  0.5000000000000000
  0.0846021724944638  0.4205742332750685  0.0000000000000000
  0.3766369755545754  0.8758383066703930  0.5000000000000000
  0.6726715108188691  0.3309600308901900 -0.0000000000000000
  0.9592748639374981  0.7870727549477813  0.5000000000000000
  0.4919024449724386  0.4922511053101672  0.0000000000000000
  0.2057870031465694  0.0383917225108617  0.5000000000000000
  0.5762078520173040  0.9137242584425246  0.0000000000000000
  0.3307904269711867  0.6712328765966969 -0.0000000000000000
  0.2910833388580343  0.4653821755182960  0.5000000000000000
  0.1227701196476835  0.6225100236317850  0.5000000000000000
 
  0.00000000E+00  0.00000000E+00  0.00000000E+00
  0.00000000E+00  0.00000000E+00  0.00000000E+00
  0.00000000E+00  0.00000000E+00  0.00000000E+00
  0.00000000E+00  0.00000000E+00  0.00000000E+00
  0.00000000E+00  0.00000000E+00  0.00000000E+00
  0.00000000E+00  0.00000000E+00  0.00000000E+00
  0.00000000E+00  0.00000000E+00  0.00000000E+00
  0.00000000E+00  0.00000000E+00  0.00000000E+00
  0.00000000E+00  0.00000000E+00  0.00000000E+00
  0.00000000E+00  0.00000000E+00  0.00000000E+00
  0.00000000E+00  0.00000000E+00  0.00000000E+00
  0.00000000E+00  0.00000000E+00  0.00000000E+00
  0.00000000E+00  0.00000000E+00  0.00000000E+00
  0.00000000E+00  0.00000000E+00  0.00000000E+00
  0.00000000E+00  0.00000000E+00  0.00000000E+00
  0.00000000E+00  0.00000000E+00  0.00000000E+00
  0.00000000E+00  0.00000000E+00  0.00000000E+00
  0.00000000E+00  0.00000000E+00  0.00000000E+00
  0.00000000E+00  0.00000000E+00  0.00000000E+00
  0.00000000E+00  0.00000000E+00  0.00000000E+00
  0.00000000E+00  0.00000000E+00  0.00000000E+00
  0.00000000E+00  0.00000000E+00  0.00000000E+00
  0.00000000E+00  0.00000000E+00  0.00000000E+00
  0.00000000E+00  0.00000000E+00  0.00000000E+00
