FeCoPd2_sqsbcc                          
   3.00000000000000     
     0.9082022300268100   -0.9042604049527424    3.7812879387416780
     0.8583118722192857    2.6660076760937241   -1.2530997018595804
    -2.6699659927627888   -0.8577119406292060   -1.2682112599606341
   Fe   Co   Pd
     8     8    16
Direct
  0.7591457821018582  0.5108479676559369  0.7637008154326711
  0.4927961455705865  0.7494490416264936  0.2498599879542935
  0.2607451858176733  0.7640355519705877  0.5053593024871754
  0.2507482469845524  0.7521456625355434  0.0087868299729657
  0.7435543175299285  0.4980507950628775  0.2382152996442843
  0.0010482394935048  0.2554240626380694  0.7557132419489405
 -0.0066186723965807  0.4875093759481488  0.4991792748080934
 -0.0006992598333976  0.5047565326527279  0.0028054613075875
  0.2297906496294863 -0.0091757220769732  0.2429975836267813
  0.0054851625471198  0.0027234321986432  0.0065042336695459
  0.7823761706442823  0.2733726100348206  0.5390215831475802
  0.4850741018506955  0.2382046624978366  0.7242892838286973
  0.0027861038387657 -0.0111771029777677  0.4875241593701495
  0.2442973937763223  0.2297287794994378  0.4888611179045146
  0.2416147311407274  0.5048587430102460  0.2354950269661344
  0.0175484543472049  0.7675121914169142  0.2590352124874234
  0.2436040013083346  0.4911082497588875  0.7533053798877349
  0.7511573075568686 -0.0026357068747770  0.2635503748353549
  0.7540777974006770  0.0087295789846509  0.7486500058883481
  0.5013795008434958  0.2422140834857621  0.2619064379940048
  0.4916442213366972  0.4903055129178054  0.4946974428024478
  0.4937755396453001  0.4817860258396674 -0.0183858394940772
  0.5009200766470929  0.0017560009286969  0.0087663501434422
  0.7520982523129432  0.7553185049905350  0.4943800701970408
  0.7624440017123106  0.7511580560160719  0.0060252222464905
  0.2317500578149712 -0.0287847744954906  0.7189425703933793
  0.4990711186472084  0.7519445283703333  0.7474851831519936
  0.0098673284875231  0.2608760385654267  0.2561274019340291
 -0.0019828668681225  0.7398415408887653  0.7524640636447369
  0.4937372911112067  0.0058895744613080  0.4915323918221375
  0.2439963706105540  0.2524610882309730 -0.0055481697648532
  0.7627672483902067  0.2797651142378426  0.0187526997609518
 
  0.00000000E+00  0.00000000E+00  0.00000000E+00
  0.00000000E+00  0.00000000E+00  0.00000000E+00
  0.00000000E+00  0.00000000E+00  0.00000000E+00
  0.00000000E+00  0.00000000E+00  0.00000000E+00
  0.00000000E+00  0.00000000E+00  0.00000000E+00
  0.00000000E+00  0.00000000E+00  0.00000000E+00
  0.00000000E+00  0.00000000E+00  0.00000000E+00
  0.00000000E+00  0.00000000E+00  0.00000000E+00
  0.00000000E+00  0.00000000E+00  0.00000000E+00
  0.00000000E+00  0.00000000E+00  0.00000000E+00
  0.00000000E+00  0.00000000E+00  0.00000000E+00
  0.00000000E+00  0.00000000E+00  0.00000000E+00
  0.00000000E+00  0.00000000E+00  0.00000000E+00
  0.00000000E+00  0.00000000E+00  0.00000000E+00
  0.00000000E+00  0.00000000E+00  0.00000000E+00
  0.00000000E+00  0.00000000E+00  0.00000000E+00
  0.00000000E+00  0.00000000E+00  0.00000000E+00
  0.00000000E+00  0.00000000E+00  0.00000000E+00
  0.00000000E+00  0.00000000E+00  0.00000000E+00
  0.00000000E+00  0.00000000E+00  0.00000000E+00
  0.00000000E+00  0.00000000E+00  0.00000000E+00
  0.00000000E+00  0.00000000E+00  0.00000000E+00
  0.00000000E+00  0.00000000E+00  0.00000000E+00
  0.00000000E+00  0.00000000E+00  0.00000000E+00
  0.00000000E+00  0.00000000E+00  0.00000000E+00
  0.00000000E+00  0.00000000E+00  0.00000000E+00
  0.00000000E+00  0.00000000E+00  0.00000000E+00
  0.00000000E+00  0.00000000E+00  0.00000000E+00
  0.00000000E+00  0.00000000E+00  0.00000000E+00
  0.00000000E+00  0.00000000E+00  0.00000000E+00
  0.00000000E+00  0.00000000E+00  0.00000000E+00
  0.00000000E+00  0.00000000E+00  0.00000000E+00
