Fe2CrCo_sqsbcc                          
   3.00000000000000     
     0.9478714198340676   -0.9408711483460236    2.8369681393997781
     0.9351177243898255    2.8180094900850570   -0.9429343725742618
    -2.8288755515857353   -0.9331926184879791   -0.9480120214930061
   Fe   Cr   Co
    16     8     8
Direct
  0.2458788433843905  0.4966401477385422  0.7456283008276190
  0.7487520991810628  0.9987273225219386  0.2480507629936388
  0.7513783215852874  0.0008038386248732  0.7513019653481769
  0.4998787184901134  0.2502861036848440  0.2508494178243037
  0.4993802384094990  0.4980536734482033  0.5003197812347160
  0.4995567100611541  0.4974832577330216  0.9969122621392651
  0.4992436779778825  0.0002681327741366  0.0014319029133042
  0.7506913769178364  0.7506028755693398  0.5005017159261560
  0.7509950892605238  0.7483188663598455  0.9997139892306043
  0.2500106898037225  0.0007677236971659  0.7496998432661556
  0.4995999486820986  0.7512686778457288  0.7503458827469687
  0.9977962243911764  0.2479337379336861  0.2479054021070121
  0.0007577365205466  0.7491788165610270  0.7534209799166650
  0.4951424758862826  0.9913329541042019  0.4969622533413861
  0.2499896733607103  0.2505911910782486  0.0003917105186558
  0.7548679186416829  0.2574550777337115  0.0016597790012627
  0.7611958998981478  0.5093067921807461  0.7639722267639540
  0.4954114859600633  0.7495389779520963  0.2439908786120002
  0.2544763286399683  0.7551282966711398  0.5106915135607809
  0.2525073365792198  0.7484784469053392  0.0043416762894732
  0.7492344165620560  0.4968983640938583  0.2507448014824242
  0.0086276180849819  0.2597264512031250  0.7618227178263377
  0.9971745969048749  0.5020317914663492  0.4918782546059887
  0.9940183629551800  0.4984858772753720  0.9846004774130827
  0.2670516529947901  0.0124512386235857  0.2640098985804344
  0.9995932582166751  0.0008077305403509  0.0008243824186082
  0.7455508476695502  0.2461086502433458  0.4952658086256505
  0.4911938477619971  0.2409133040394668  0.7404032852982185
  0.9963365840116970  0.9971871543194739  0.4976087829020846
  0.2467957488352332  0.2481210271693901  0.4964873292391739
  0.2503441595538057  0.5001003961854665  0.2519175590952226
  0.9965681128178040  0.7450031037223828  0.2463444579506762
 
  0.00000000E+00  0.00000000E+00  0.00000000E+00
  0.00000000E+00  0.00000000E+00  0.00000000E+00
  0.00000000E+00  0.00000000E+00  0.00000000E+00
  0.00000000E+00  0.00000000E+00  0.00000000E+00
  0.00000000E+00  0.00000000E+00  0.00000000E+00
  0.00000000E+00  0.00000000E+00  0.00000000E+00
  0.00000000E+00  0.00000000E+00  0.00000000E+00
  0.00000000E+00  0.00000000E+00  0.00000000E+00
  0.00000000E+00  0.00000000E+00  0.00000000E+00
  0.00000000E+00  0.00000000E+00  0.00000000E+00
  0.00000000E+00  0.00000000E+00  0.00000000E+00
  0.00000000E+00  0.00000000E+00  0.00000000E+00
  0.00000000E+00  0.00000000E+00  0.00000000E+00
  0.00000000E+00  0.00000000E+00  0.00000000E+00
  0.00000000E+00  0.00000000E+00  0.00000000E+00
  0.00000000E+00  0.00000000E+00  0.00000000E+00
  0.00000000E+00  0.00000000E+00  0.00000000E+00
  0.00000000E+00  0.00000000E+00  0.00000000E+00
  0.00000000E+00  0.00000000E+00  0.00000000E+00
  0.00000000E+00  0.00000000E+00  0.00000000E+00
  0.00000000E+00  0.00000000E+00  0.00000000E+00
  0.00000000E+00  0.00000000E+00  0.00000000E+00
  0.00000000E+00  0.00000000E+00  0.00000000E+00
  0.00000000E+00  0.00000000E+00  0.00000000E+00
  0.00000000E+00  0.00000000E+00  0.00000000E+00
  0.00000000E+00  0.00000000E+00  0.00000000E+00
  0.00000000E+00  0.00000000E+00  0.00000000E+00
  0.00000000E+00  0.00000000E+00  0.00000000E+00
  0.00000000E+00  0.00000000E+00  0.00000000E+00
  0.00000000E+00  0.00000000E+00  0.00000000E+00
  0.00000000E+00  0.00000000E+00  0.00000000E+00
  0.00000000E+00  0.00000000E+00  0.00000000E+00
