NiCr2Co_sqsbcc                          
   3.00000000000000     
     0.8565115707787267   -0.8982879952303631    2.9145568530834334
     0.8684994549213683    2.8901662410139606   -0.9113089397280065
    -2.5826888322195400   -1.0003018089993907   -1.0006388723881794
   Ni   Cr   Co
     8    16     8
Direct
  0.7035269832373485  0.4522527117774727  0.7222909603750157
  0.4405221135249719  0.6881272633620404  0.2070602381977525
  0.2987419403725042  0.7974943404321968  0.5228631056867611
  0.3122610389371569  0.8147546885678135  0.0521438081890364
  0.6904963463369207  0.4392730212808330  0.2054240909108117
  0.9478264698266403  0.1949432993880243  0.7105115004930275
  0.0384945433221271  0.5379634802176199  0.5150626973435956
  0.0523425801079187  0.5508292635370994  0.0361300140816612
  0.2271173653906676  0.4753510588897240  0.7362680328195194
  0.7093666109965757  0.9691036258730539  0.2367326032728461
  0.6977831906514582  0.9501773228286849  0.7107347073252941
  0.4776528996073309  0.2323938124649376  0.2517470767467821
  0.5432489148007552  0.5512221849395833  0.5431090019313284
  0.5507423441566464  0.5401055722582419  0.0188154768763593
  0.5219613593267137  0.0338896862090483  0.0154668226053979
  0.7837066150730030  0.7879646692409632  0.5259128253342031
  0.8166938684824209  0.8081184567684198  0.0516680205134981
  0.1917630303899658  0.9406593503083476  0.7006508144283823
  0.4422828348837313  0.7039140290451372  0.7076902336381037
  0.9242796690559606  0.1628585066599383  0.1881880657322423
  0.9812956379808793  0.7338949807444028  0.7428381968033673
  0.5571880590977117  0.0596103597808414  0.5316657596132275
  0.2808290755040190  0.2752934170259958  0.0131133586341648
  0.8044816570065710  0.2962201783267929  0.0394121815046734
  0.1964107194195156  0.9485814706473327  0.2198602869234849
  0.0583996817240176  0.0596737581579500  0.0455072449676242
  0.8182855729862730  0.3193695788232641  0.5516767571132950
  0.4394369561224364  0.1853414628280331  0.7060025551876272
  0.0489038451300853  0.0504083913441221  0.5302850327368227
  0.3099427943320232  0.3096681564594951  0.5400951807307419
  0.1925606301914141  0.4380843632983168  0.2079266478713257
  0.9414546520242155  0.6924575385142410  0.2131467014120253
 
  0.00000000E+00  0.00000000E+00  0.00000000E+00
  0.00000000E+00  0.00000000E+00  0.00000000E+00
  0.00000000E+00  0.00000000E+00  0.00000000E+00
  0.00000000E+00  0.00000000E+00  0.00000000E+00
  0.00000000E+00  0.00000000E+00  0.00000000E+00
  0.00000000E+00  0.00000000E+00  0.00000000E+00
  0.00000000E+00  0.00000000E+00  0.00000000E+00
  0.00000000E+00  0.00000000E+00  0.00000000E+00
  0.00000000E+00  0.00000000E+00  0.00000000E+00
  0.00000000E+00  0.00000000E+00  0.00000000E+00
  0.00000000E+00  0.00000000E+00  0.00000000E+00
  0.00000000E+00  0.00000000E+00  0.00000000E+00
  0.00000000E+00  0.00000000E+00  0.00000000E+00
  0.00000000E+00  0.00000000E+00  0.00000000E+00
  0.00000000E+00  0.00000000E+00  0.00000000E+00
  0.00000000E+00  0.00000000E+00  0.00000000E+00
  0.00000000E+00  0.00000000E+00  0.00000000E+00
  0.00000000E+00  0.00000000E+00  0.00000000E+00
  0.00000000E+00  0.00000000E+00  0.00000000E+00
  0.00000000E+00  0.00000000E+00  0.00000000E+00
  0.00000000E+00  0.00000000E+00  0.00000000E+00
  0.00000000E+00  0.00000000E+00  0.00000000E+00
  0.00000000E+00  0.00000000E+00  0.00000000E+00
  0.00000000E+00  0.00000000E+00  0.00000000E+00
  0.00000000E+00  0.00000000E+00  0.00000000E+00
  0.00000000E+00  0.00000000E+00  0.00000000E+00
  0.00000000E+00  0.00000000E+00  0.00000000E+00
  0.00000000E+00  0.00000000E+00  0.00000000E+00
  0.00000000E+00  0.00000000E+00  0.00000000E+00
  0.00000000E+00  0.00000000E+00  0.00000000E+00
  0.00000000E+00  0.00000000E+00  0.00000000E+00
  0.00000000E+00  0.00000000E+00  0.00000000E+00
