FeCr2Mn_32sqsfcc                        
   4.00000000000000     
     0.9935413329485711    0.7077047085173496    1.9942734279810681
     1.0019476146635089    0.7022760463012665   -1.9971284000025520
    -1.0024742394631152    0.7083357122756527    0.0025612357309650
   Fe   Cr   Mn
     8    16     8
Direct
  0.9977622518335802  0.4995180705553902  0.9986211180874451
  0.0008256364567456  0.7521377813327015  0.7546228210711338
  0.9985181257244885  0.2495845973702272  0.7518829945744315
  0.0003484080874113  0.9989691925323875  0.5013942840701613
  0.7533355547861013  0.7530696631923692  0.5017388842018983
  0.2470712446525370 -0.0005386971668254  0.2502879325848608
  0.7501154395666546  0.2503729929532422  0.5027710064533089
  0.7492052462921598  0.9987024148864443  0.7488634005852807
  0.9967876453641648  0.7481679916720619  0.2515268859058234
  0.2517041613689462  0.7510384791970682  0.9967500157999342
  0.2482886400743154  0.7523138047721767  0.4965097869177043
  0.9957535035248887  0.2461165344703159  0.2527708806265326
  0.2488380476965422  0.4983508649112170  0.2518794285798548
  0.5003513122708384  0.7479182788604466  0.2537097005771075
  0.9988319667175769  0.0023933593728739 -0.0025133723493106
  0.2512158987598836  0.2477789895676820  0.0037051163757078
  0.5014143921440121  0.4985594275173391  0.0090117572683448
  0.2502226516381071  0.5010929749156944  0.7557213592469352
  0.5014193555639493  0.7482318813389583  0.7517642590631060
  0.5003864590382908  0.0013554228194549  0.9989496618642049
  0.7492306381865012  0.2518709442946849  0.0006924515680900
  0.2540343418202115  0.0048019489769157  0.7497714557881682
  0.7492778005977970  0.5009284925244096  0.7339625034830705
  0.4999259743527445 -0.0000554822322524  0.4971782753596631
  0.0029590076639409  0.5010770387247560  0.5000833317123253
  0.7513886356559035  0.7454282763933155  0.9989215738224865
  0.2500397322433742  0.2546596291742880  0.5044111901482859
  0.5035803390859496  0.5020415733706116  0.5105243112746226
  0.4971873173161807  0.2473265341401334  0.2444871704436114
  0.7491433266826585  0.4984408987759894  0.2407112657884189
  0.5041233561386098  0.2523522274943351  0.7424766564643706
  0.7467135886949130  0.9959938932915811  0.2468118926424437
 
  0.00000000E+00  0.00000000E+00  0.00000000E+00
  0.00000000E+00  0.00000000E+00  0.00000000E+00
  0.00000000E+00  0.00000000E+00  0.00000000E+00
  0.00000000E+00  0.00000000E+00  0.00000000E+00
  0.00000000E+00  0.00000000E+00  0.00000000E+00
  0.00000000E+00  0.00000000E+00  0.00000000E+00
  0.00000000E+00  0.00000000E+00  0.00000000E+00
  0.00000000E+00  0.00000000E+00  0.00000000E+00
  0.00000000E+00  0.00000000E+00  0.00000000E+00
  0.00000000E+00  0.00000000E+00  0.00000000E+00
  0.00000000E+00  0.00000000E+00  0.00000000E+00
  0.00000000E+00  0.00000000E+00  0.00000000E+00
  0.00000000E+00  0.00000000E+00  0.00000000E+00
  0.00000000E+00  0.00000000E+00  0.00000000E+00
  0.00000000E+00  0.00000000E+00  0.00000000E+00
  0.00000000E+00  0.00000000E+00  0.00000000E+00
  0.00000000E+00  0.00000000E+00  0.00000000E+00
  0.00000000E+00  0.00000000E+00  0.00000000E+00
  0.00000000E+00  0.00000000E+00  0.00000000E+00
  0.00000000E+00  0.00000000E+00  0.00000000E+00
  0.00000000E+00  0.00000000E+00  0.00000000E+00
  0.00000000E+00  0.00000000E+00  0.00000000E+00
  0.00000000E+00  0.00000000E+00  0.00000000E+00
  0.00000000E+00  0.00000000E+00  0.00000000E+00
  0.00000000E+00  0.00000000E+00  0.00000000E+00
  0.00000000E+00  0.00000000E+00  0.00000000E+00
  0.00000000E+00  0.00000000E+00  0.00000000E+00
  0.00000000E+00  0.00000000E+00  0.00000000E+00
  0.00000000E+00  0.00000000E+00  0.00000000E+00
  0.00000000E+00  0.00000000E+00  0.00000000E+00
  0.00000000E+00  0.00000000E+00  0.00000000E+00
  0.00000000E+00  0.00000000E+00  0.00000000E+00
