NiCrCo2_sqsbcc                          
   3.00000000000000     
     0.8747818369402715   -0.8342911320481960    2.9053815379510359
     1.0163694229674936    2.5036179873910385   -1.0148727157443500
    -2.9082618293674170   -0.8339468395336920   -0.8737175874876858
   Ni   Cr   Co
     8     8    16
Direct
  0.6893662419571426  0.4606923922022111  0.6899693125207154
  0.5657049105792341  0.7929244560692444  0.3133492683633986
  0.3171501915602264  0.7941769327463007  0.5673471483804773
  0.3127482222686148  0.7902062786709561  0.0629360512548300
  0.6839789721808683  0.4558483355922716  0.1869109289622061
  0.0630634463359384  0.2901580065599976  0.8101304617467615
  0.9390828275539856  0.4613004315061581  0.4382721810179518
  0.9347139443173783  0.4557522697648995  0.9363623797924788
  0.1924979316014007  0.9627406424053786  0.1960326524931683
  0.9315782101207931  0.9488692908997688  0.9326536237660006
  0.8110187179788182  0.2907584867508883  0.5580395114245514
  0.5515987909062356  0.2872504639160305  0.8050462192381519
  0.9510009798535071  0.9629253699094069  0.4359337304250561
  0.3109697854108927  0.2957298534008742  0.5599510582501720
  0.1899115503765502  0.4662139798481763  0.1930914061043498
  0.0668837784685216  0.7946668599782482  0.3204340507131888
  0.1868756754957566  0.4593476328657842  0.6875242725830044
  0.6889620146171485  0.9578301571559743  0.1853687242875585
  0.6934602136916591  0.9623783087545088  0.6930648618974387
  0.5602386122130663  0.2920491944069848  0.3137041674421552
  0.4342905513871692  0.4564212204515166  0.4347897740306573
  0.4399646795695191  0.4598946692863937  0.9387683541506633
  0.4396649613080275  0.9603517346518762  0.9416663099285849
  0.8097679122746130  0.7899213839766754  0.5620427857957175
  0.8070697656914970  0.7865118615823194  0.0548967017233199
  0.1875267015280870  0.9607051048496921  0.6910272179817857
  0.5629972521135972  0.7922512759841085  0.8109880069776668
  0.0622399603176845  0.2876721456872567  0.3072946414867948
  0.0615849888959275  0.7898451661229149  0.8129607479136204
  0.4368119945625813  0.9569991933429226  0.4381953678829962
  0.3071246920207551  0.2891113799886678  0.0617639213363028
  0.8101515228428144  0.2884955206715951  0.0594841601282803
 
  0.00000000E+00  0.00000000E+00  0.00000000E+00
  0.00000000E+00  0.00000000E+00  0.00000000E+00
  0.00000000E+00  0.00000000E+00  0.00000000E+00
  0.00000000E+00  0.00000000E+00  0.00000000E+00
  0.00000000E+00  0.00000000E+00  0.00000000E+00
  0.00000000E+00  0.00000000E+00  0.00000000E+00
  0.00000000E+00  0.00000000E+00  0.00000000E+00
  0.00000000E+00  0.00000000E+00  0.00000000E+00
  0.00000000E+00  0.00000000E+00  0.00000000E+00
  0.00000000E+00  0.00000000E+00  0.00000000E+00
  0.00000000E+00  0.00000000E+00  0.00000000E+00
  0.00000000E+00  0.00000000E+00  0.00000000E+00
  0.00000000E+00  0.00000000E+00  0.00000000E+00
  0.00000000E+00  0.00000000E+00  0.00000000E+00
  0.00000000E+00  0.00000000E+00  0.00000000E+00
  0.00000000E+00  0.00000000E+00  0.00000000E+00
  0.00000000E+00  0.00000000E+00  0.00000000E+00
  0.00000000E+00  0.00000000E+00  0.00000000E+00
  0.00000000E+00  0.00000000E+00  0.00000000E+00
  0.00000000E+00  0.00000000E+00  0.00000000E+00
  0.00000000E+00  0.00000000E+00  0.00000000E+00
  0.00000000E+00  0.00000000E+00  0.00000000E+00
  0.00000000E+00  0.00000000E+00  0.00000000E+00
  0.00000000E+00  0.00000000E+00  0.00000000E+00
  0.00000000E+00  0.00000000E+00  0.00000000E+00
  0.00000000E+00  0.00000000E+00  0.00000000E+00
  0.00000000E+00  0.00000000E+00  0.00000000E+00
  0.00000000E+00  0.00000000E+00  0.00000000E+00
  0.00000000E+00  0.00000000E+00  0.00000000E+00
  0.00000000E+00  0.00000000E+00  0.00000000E+00
  0.00000000E+00  0.00000000E+00  0.00000000E+00
  0.00000000E+00  0.00000000E+00  0.00000000E+00
