FeCoPd2_32sqsfcc                        
   4.00000000000000     
     0.9479497999408262    0.9475445485181087    1.8753370391705144
     0.9497210972013562    0.9509092682393059   -1.8778962689733891
    -0.9517709731900863    0.9521696908388285   -0.0003924998653658
   Fe   Co   Pd
     8     8    16
Direct
 -0.0049028381477628  0.4978249511122730 -0.0031103248623918
 -0.0045520992487438  0.7526373469558622  0.7535570758268099
  0.0013472935745458  0.2472011257064880  0.7521925364131192
 -0.0102932229340035  0.0001863485715950  0.5023071243615030
  0.7473599334456564  0.7477860566299366  0.4933118103405117
  0.2463005120659939  0.0047954708152891  0.2551357896658166
  0.7524108792320131  0.2590305499377473  0.4939897431517660
  0.7490349425892052 -0.0043703913601705  0.7476022802910977
 -0.0041413380357186  0.4968341666211789  0.5047814029928971
  0.7538074754455960  0.7541316827407999 -0.0081425136512912
  0.2595308833204409  0.2493228884692898  0.4918082522767364
  0.5011698506239847  0.4873933429023516  0.4958230327790034
  0.5101652883461572  0.2605823758858468  0.2758831496224657
  0.7469180235970918  0.4955530308626670  0.2579890860395736
  0.5021555303921249  0.2579097918671668  0.7258228622246820
  0.7553948587423899 -0.0016842032241432  0.2722178296960792
 -0.0141657713515351  0.7411237279645061  0.2565666177701292
  0.2415491351970245  0.7513834251045567 -0.0034314849852300
  0.2435961908140177  0.7499467935319439  0.4977334337752523
 -0.0020427820601092  0.2494888439048976  0.2672028274533684
  0.2493050144518573  0.4973324333507865  0.2504815504983541
  0.5122883343020026  0.7509310769331148  0.2493354774232140
 -0.0099453718181119 -0.0031700492791317  0.0012276684024377
  0.2577092099503033  0.2431739001212151  0.0035465505369808
  0.5102108451760224  0.4936880830510026  0.0035205815144158
  0.2424238768363218  0.4889990073937278  0.7435883199716938
  0.5084564809559824  0.7476624642135236  0.7468063756465588
  0.4984882895585871  0.0109399782637293  0.0037038892073227
  0.7514495081006275  0.2505551278627168 -0.0048227077517657
  0.2430704488520565  0.0032768694166618  0.7323834144760660
  0.7559528344315382  0.5073357393817112  0.7400075483831561
  0.5099477835944454  0.0121980442908607  0.5009808005096672
 
  0.00000000E+00  0.00000000E+00  0.00000000E+00
  0.00000000E+00  0.00000000E+00  0.00000000E+00
  0.00000000E+00  0.00000000E+00  0.00000000E+00
  0.00000000E+00  0.00000000E+00  0.00000000E+00
  0.00000000E+00  0.00000000E+00  0.00000000E+00
  0.00000000E+00  0.00000000E+00  0.00000000E+00
  0.00000000E+00  0.00000000E+00  0.00000000E+00
  0.00000000E+00  0.00000000E+00  0.00000000E+00
  0.00000000E+00  0.00000000E+00  0.00000000E+00
  0.00000000E+00  0.00000000E+00  0.00000000E+00
  0.00000000E+00  0.00000000E+00  0.00000000E+00
  0.00000000E+00  0.00000000E+00  0.00000000E+00
  0.00000000E+00  0.00000000E+00  0.00000000E+00
  0.00000000E+00  0.00000000E+00  0.00000000E+00
  0.00000000E+00  0.00000000E+00  0.00000000E+00
  0.00000000E+00  0.00000000E+00  0.00000000E+00
  0.00000000E+00  0.00000000E+00  0.00000000E+00
  0.00000000E+00  0.00000000E+00  0.00000000E+00
  0.00000000E+00  0.00000000E+00  0.00000000E+00
  0.00000000E+00  0.00000000E+00  0.00000000E+00
  0.00000000E+00  0.00000000E+00  0.00000000E+00
  0.00000000E+00  0.00000000E+00  0.00000000E+00
  0.00000000E+00  0.00000000E+00  0.00000000E+00
  0.00000000E+00  0.00000000E+00  0.00000000E+00
  0.00000000E+00  0.00000000E+00  0.00000000E+00
  0.00000000E+00  0.00000000E+00  0.00000000E+00
  0.00000000E+00  0.00000000E+00  0.00000000E+00
  0.00000000E+00  0.00000000E+00  0.00000000E+00
  0.00000000E+00  0.00000000E+00  0.00000000E+00
  0.00000000E+00  0.00000000E+00  0.00000000E+00
  0.00000000E+00  0.00000000E+00  0.00000000E+00
  0.00000000E+00  0.00000000E+00  0.00000000E+00
