Cr2CoPd_sqsbcc                          
   3.00000000000000     
     0.9413675442716212   -0.9121914657027619    3.0192942501681359
     1.0063354288886406    2.6670049224483923   -1.0523934651402875
    -2.9860240018297866   -0.8621101030751924   -0.9319122401190245
   Cr   Co   Pd
    16     8     8
Direct
  0.2189302189399570  0.4877234529039753  0.7125821917066421
  0.6835667657260497  0.9554515258965601  0.1898254940521608
  0.7135670994034461  1.0005366374498967  0.7192934931229064
  0.5523290966217055  0.2695142858593793  0.2796351802670036
  0.4889610418256168  0.4677363150537184  0.4391774804395647
  0.4426022943195945  0.4623028622796643  0.9590386937086277
  0.4790045491815499  0.9891232500904176  0.9633119981778178
  0.8128334784416197  0.7999258552690125  0.5662180801960521
  0.7377462494037450  0.7467378570181987  0.0254864179717716
  0.2006501739750696  0.9503610499921141  0.7118892143340881
  0.5068876295964462  0.7524400925483918  0.7546952913923797
  0.9690031191067450  0.2364085857252610  0.2517649916614859
  0.0515387024735197  0.7856824444998202  0.7940026244005598
  0.4547747785510479  0.9565208312152202  0.4526641773049437
  0.3251716172618785  0.3120814390817511  0.0725723110051146
  0.8132926370390711  0.3032349813697647  0.0655873453979039
  0.6942679980088327  0.4615636311976247  0.6880458735924945
  0.5666624499151177  0.7934357059960735  0.3174621512599771
  0.3075489585108165  0.7910740779036050  0.5662106290840319
  0.3175807212627933  0.7819639347912034  0.0495966544725151
  0.6889021964234053  0.4643811863335367  0.2017603198947261
  0.0722420721348815  0.3021335236456784  0.8290656568049859
  0.9575681124672933  0.4860804182000819  0.4595160470802145
  0.9460139768004551  0.4541928910446602  0.9406377881806472
  0.2021587460438784  0.9453656466766207  0.1797501437737372
  0.9368414600943022  0.9597163890250056  0.9530461965981181
  0.8156643011902543  0.2928382057070202  0.5630393494818009
  0.5476086107546508  0.2814027956805007  0.8007526540269904
  0.9546639104703181  0.9801629630762836  0.4631853247786659
  0.2786503591477350  0.2726395567186019  0.5060876179710778
  0.2153708380339053  0.4800308416433091  0.2245234085798950
  0.0473958368742925  0.7772367661070576  0.2995751992810973
 
  0.00000000E+00  0.00000000E+00  0.00000000E+00
  0.00000000E+00  0.00000000E+00  0.00000000E+00
  0.00000000E+00  0.00000000E+00  0.00000000E+00
  0.00000000E+00  0.00000000E+00  0.00000000E+00
  0.00000000E+00  0.00000000E+00  0.00000000E+00
  0.00000000E+00  0.00000000E+00  0.00000000E+00
  0.00000000E+00  0.00000000E+00  0.00000000E+00
  0.00000000E+00  0.00000000E+00  0.00000000E+00
  0.00000000E+00  0.00000000E+00  0.00000000E+00
  0.00000000E+00  0.00000000E+00  0.00000000E+00
  0.00000000E+00  0.00000000E+00  0.00000000E+00
  0.00000000E+00  0.00000000E+00  0.00000000E+00
  0.00000000E+00  0.00000000E+00  0.00000000E+00
  0.00000000E+00  0.00000000E+00  0.00000000E+00
  0.00000000E+00  0.00000000E+00  0.00000000E+00
  0.00000000E+00  0.00000000E+00  0.00000000E+00
  0.00000000E+00  0.00000000E+00  0.00000000E+00
  0.00000000E+00  0.00000000E+00  0.00000000E+00
  0.00000000E+00  0.00000000E+00  0.00000000E+00
  0.00000000E+00  0.00000000E+00  0.00000000E+00
  0.00000000E+00  0.00000000E+00  0.00000000E+00
  0.00000000E+00  0.00000000E+00  0.00000000E+00
  0.00000000E+00  0.00000000E+00  0.00000000E+00
  0.00000000E+00  0.00000000E+00  0.00000000E+00
  0.00000000E+00  0.00000000E+00  0.00000000E+00
  0.00000000E+00  0.00000000E+00  0.00000000E+00
  0.00000000E+00  0.00000000E+00  0.00000000E+00
  0.00000000E+00  0.00000000E+00  0.00000000E+00
  0.00000000E+00  0.00000000E+00  0.00000000E+00
  0.00000000E+00  0.00000000E+00  0.00000000E+00
  0.00000000E+00  0.00000000E+00  0.00000000E+00
  0.00000000E+00  0.00000000E+00  0.00000000E+00
