CrCoMn_bccsqs                           
   3.00000000000000     
     1.8748519960173156   -1.8800201502102019    0.0025742775366935
    -1.8742009686940000   -0.0018959136232533    1.8803683046934172
    -1.4087917469646083   -1.4106966729647623   -1.4120363853962563
   Cr   Co   Mn
    12    12    12
Direct
  0.8328456601510142  0.1657482847676414  0.2288576909416810
  0.8284481796248999  0.1576068270745455  0.5579605964966188
  0.3317398046307047  0.1610445501059523  0.2253163593794169
  0.8333117805033412  0.6688705851623516  0.2275836327081169
  0.4967409340368951  0.4935807146681469  0.6593224605473238
  0.9983731786251544  0.0051921624980887  0.6628326901900521
  0.1665913311535929  0.3277002822910631  0.7737906285400221
  0.9924995191384387  0.9932487497059550  0.9951314785234053
  0.6671999428865126  0.8333876153946825  0.1104260787348659
  0.8407603452703593  0.6628891860995205  0.8940041532198449
  0.0051179289176840  0.0030090904537681  0.3258088058469069
  0.5053110110660884  0.9910055532616311  0.9888511260057338
  0.1730034147990089  0.3330301506013932  0.1092158132873402
  0.3338295462615286  0.6656819714910329  0.2434580330931038
  0.6702964134918341  0.3356811185681201  0.4474272698290498
  0.0008268958386511  0.5003459213641978  0.6704736963244934
  0.4977132060883306  0.4892131219766964  0.3148641719066729
  0.6609505258342919  0.3311261788082367  0.1093421590398188
  0.3252760083145373  0.1574733033874048  0.5509417244621055
  0.1682265374352674  0.3430234392388433  0.4479854590327160
  0.3365492171732171  0.1689411197061122  0.8956571909923783
  0.1686311069171986  0.8470031923921670  0.7678059034837246
  0.1642645385521441  0.8226867054574450  0.4417671898182669
  0.1709002026371650  0.8322429209016516  0.1068880201154883
  0.6603708649325732  0.8334689056382558  0.4398508679716508
  0.9974164900015252  0.4957084163904669  0.0059082323293483
  0.3186241575234998  0.6578206838553117  0.8977924893790907
  0.6644475180712361  0.3369600949062856  0.7761763171259967
  0.4963396924640749  0.0049530618962258  0.3292357179247394
  0.9967309101519858  0.4981655301190298  0.3392965537837608
  0.5070787800113882  0.5148995695059586  0.9845921069255712
  0.5113908413722112  0.0127717780534863  0.6656312107731969
  0.8384719051985320  0.1720042077241987  0.8923287537508816
  0.3445059155778434  0.6772305457488933  0.5745981419439079
  0.6660114404680476  0.8312990131713304  0.7763480076949558
  0.8292042548792220  0.6749854476139014  0.5625292678777739
 
  0.00000000E+00  0.00000000E+00  0.00000000E+00
  0.00000000E+00  0.00000000E+00  0.00000000E+00
  0.00000000E+00  0.00000000E+00  0.00000000E+00
  0.00000000E+00  0.00000000E+00  0.00000000E+00
  0.00000000E+00  0.00000000E+00  0.00000000E+00
  0.00000000E+00  0.00000000E+00  0.00000000E+00
  0.00000000E+00  0.00000000E+00  0.00000000E+00
  0.00000000E+00  0.00000000E+00  0.00000000E+00
  0.00000000E+00  0.00000000E+00  0.00000000E+00
  0.00000000E+00  0.00000000E+00  0.00000000E+00
  0.00000000E+00  0.00000000E+00  0.00000000E+00
  0.00000000E+00  0.00000000E+00  0.00000000E+00
  0.00000000E+00  0.00000000E+00  0.00000000E+00
  0.00000000E+00  0.00000000E+00  0.00000000E+00
  0.00000000E+00  0.00000000E+00  0.00000000E+00
  0.00000000E+00  0.00000000E+00  0.00000000E+00
  0.00000000E+00  0.00000000E+00  0.00000000E+00
  0.00000000E+00  0.00000000E+00  0.00000000E+00
  0.00000000E+00  0.00000000E+00  0.00000000E+00
  0.00000000E+00  0.00000000E+00  0.00000000E+00
  0.00000000E+00  0.00000000E+00  0.00000000E+00
  0.00000000E+00  0.00000000E+00  0.00000000E+00
  0.00000000E+00  0.00000000E+00  0.00000000E+00
  0.00000000E+00  0.00000000E+00  0.00000000E+00
  0.00000000E+00  0.00000000E+00  0.00000000E+00
  0.00000000E+00  0.00000000E+00  0.00000000E+00
  0.00000000E+00  0.00000000E+00  0.00000000E+00
  0.00000000E+00  0.00000000E+00  0.00000000E+00
  0.00000000E+00  0.00000000E+00  0.00000000E+00
  0.00000000E+00  0.00000000E+00  0.00000000E+00
  0.00000000E+00  0.00000000E+00  0.00000000E+00
  0.00000000E+00  0.00000000E+00  0.00000000E+00
  0.00000000E+00  0.00000000E+00  0.00000000E+00
  0.00000000E+00  0.00000000E+00  0.00000000E+00
  0.00000000E+00  0.00000000E+00  0.00000000E+00
  0.00000000E+00  0.00000000E+00  0.00000000E+00
