Ternary_FeCrPdSQSfcc                    
   4.00000000000000     
     2.2339704296295739    1.0995357773912671   -1.0995357773912671
    -2.2324091591161879    1.0996938869592869   -1.0996938869592869
    -0.0000000000000000    0.5049782312474433    0.5049782312474433
   Fe   Cr   Pd
     8     8     8
Direct
  0.8366039980871136  0.1398059348636710 -0.0000000000000000
  0.4616150743400930  0.1099206406384404 -0.0000000000000000
  0.7225289371249436  0.5748728213038926  0.5000000000000000
  0.2244319577815853  0.2398651715060682  0.0000000000000000
  0.0127945921956683 -0.0085312959307554 -0.0000000000000000
  0.5487540754536355  0.7291329511815018  0.5000000000000000
  0.0290859760816732  0.1845103378910501  0.5000000000000000
  0.1787527597502246  0.8218505914005104  0.0000000000000000
  0.8897484002885733  0.5479141299771639 -0.0000000000000000
  0.8663761680654557  0.3585333740653106  0.5000000000000000
  0.6601041927571486  0.1577391856896452  0.5000000000000000
  0.7376464092936372  0.7672624605029943 -0.0000000000000000
  0.4200049024841854  0.2855005041326065  0.5000000000000000
  0.8224569116373555  0.9468418964151422  0.5000000000000000
  0.0490657985530889  0.3704421298878394  0.0000000000000000
  0.3838690239559651  0.9057543755502522  0.5000000000000000
  0.6459572049917377  0.3525729452871716 -0.0000000000000000
  0.9553135604211079  0.7738200968645127  0.5000000000000000
  0.5058136820652830  0.5210834410364051  0.0000000000000000
  0.2307583634723049  0.0418723859705478  0.5000000000000000
  0.6059472393660292  0.9438867690905062 -0.0000000000000000
  0.3399945346679680  0.6875091404597236  0.0000000000000000
  0.2688508118664494  0.4482807529059402  0.5000000000000000
  0.1035254252987740  0.5995592593098589  0.5000000000000000
 
  0.00000000E+00  0.00000000E+00  0.00000000E+00
  0.00000000E+00  0.00000000E+00  0.00000000E+00
  0.00000000E+00  0.00000000E+00  0.00000000E+00
  0.00000000E+00  0.00000000E+00  0.00000000E+00
  0.00000000E+00  0.00000000E+00  0.00000000E+00
  0.00000000E+00  0.00000000E+00  0.00000000E+00
  0.00000000E+00  0.00000000E+00  0.00000000E+00
  0.00000000E+00  0.00000000E+00  0.00000000E+00
  0.00000000E+00  0.00000000E+00  0.00000000E+00
  0.00000000E+00  0.00000000E+00  0.00000000E+00
  0.00000000E+00  0.00000000E+00  0.00000000E+00
  0.00000000E+00  0.00000000E+00  0.00000000E+00
  0.00000000E+00  0.00000000E+00  0.00000000E+00
  0.00000000E+00  0.00000000E+00  0.00000000E+00
  0.00000000E+00  0.00000000E+00  0.00000000E+00
  0.00000000E+00  0.00000000E+00  0.00000000E+00
  0.00000000E+00  0.00000000E+00  0.00000000E+00
  0.00000000E+00  0.00000000E+00  0.00000000E+00
  0.00000000E+00  0.00000000E+00  0.00000000E+00
  0.00000000E+00  0.00000000E+00  0.00000000E+00
  0.00000000E+00  0.00000000E+00  0.00000000E+00
  0.00000000E+00  0.00000000E+00  0.00000000E+00
  0.00000000E+00  0.00000000E+00  0.00000000E+00
  0.00000000E+00  0.00000000E+00  0.00000000E+00
