NiCoPd2_SQSbcc                          
   1.00000000000000     
     2.6851787068677084   -2.6709883845909523   11.2655867121552706
     2.5553736190393921    7.9142593721523671   -3.7407126871924818
    -7.9363762612061786   -2.5499782767848025   -3.7520138823928502
   Ni   Co   Pd
     8     8    16
Direct
  0.7635318547278577  0.5095925469309955  0.7705103724833782
  0.4929385915310570  0.7542173203087668  0.2509389965926490
  0.2487497150430170  0.7529953613594574  0.4894081062878374
  0.2349115574128327  0.7310565690543952 -0.0129864690341495
  0.7527582793746939  0.5038918088980997  0.2473836791077282
  0.0103923894657476  0.2738913805888614  0.7715947702256872
 -0.0031141455484641  0.4958594933245570  0.5010481475121020
  0.0060514291846074  0.5138344469436676  0.0020929252078900
  0.2276050353583074 -0.0124323086465927  0.2414814806814240
  0.0053128620813726  0.0001408545000200  0.0079602574816217
  0.7661175049767658  0.2592172450841445  0.5213927748847863
  0.4794171756406341  0.2297380430106154  0.7181007141647126
  0.0024334920318872 -0.0111036851023564  0.4887778454554395
  0.2427671367110247  0.2294433366231909  0.4891192012937624
  0.2495992888914063  0.5081796432244434  0.2474066853358703
  0.0189403038185894  0.7686021638327984  0.2632290381556618
  0.2464242155449369  0.4922471245868716  0.7552407917689292
  0.7559710321558305  0.0027719363342486  0.2700710658667984
  0.7583256856000872  0.0131817901361811  0.7514875594251846
  0.4985506225704182  0.2383898160479017  0.2594097308505785
  0.4931535808575623  0.4908165917421234  0.4965273973717325
  0.4968419418203274  0.4848623404825738 -0.0134785588992767
  0.5040717488961683  0.0047740141160847  0.0094675369613429
  0.7524115084132325  0.7555645754804413  0.4952519516167874
  0.7604996807137773  0.7479835624001751  0.0051799285422922
  0.2381132502273859 -0.0202557818253247  0.7282720336939369
  0.4995474419973350  0.7523903288353444  0.7481802536626396
  0.0091846146280216  0.2596839685758514  0.2554661323230384
 -0.0043629152874113  0.7382634973143364  0.7522709868138714
  0.4906400913413672  0.0022045664115965  0.4843708339478237
  0.2439370341963978  0.2550468259483972 -0.0040899292282455
  0.7582779956232252  0.2749506234781346  0.0089137594461640
 
  0.00000000E+00  0.00000000E+00  0.00000000E+00
  0.00000000E+00  0.00000000E+00  0.00000000E+00
  0.00000000E+00  0.00000000E+00  0.00000000E+00
  0.00000000E+00  0.00000000E+00  0.00000000E+00
  0.00000000E+00  0.00000000E+00  0.00000000E+00
  0.00000000E+00  0.00000000E+00  0.00000000E+00
  0.00000000E+00  0.00000000E+00  0.00000000E+00
  0.00000000E+00  0.00000000E+00  0.00000000E+00
  0.00000000E+00  0.00000000E+00  0.00000000E+00
  0.00000000E+00  0.00000000E+00  0.00000000E+00
  0.00000000E+00  0.00000000E+00  0.00000000E+00
  0.00000000E+00  0.00000000E+00  0.00000000E+00
  0.00000000E+00  0.00000000E+00  0.00000000E+00
  0.00000000E+00  0.00000000E+00  0.00000000E+00
  0.00000000E+00  0.00000000E+00  0.00000000E+00
  0.00000000E+00  0.00000000E+00  0.00000000E+00
  0.00000000E+00  0.00000000E+00  0.00000000E+00
  0.00000000E+00  0.00000000E+00  0.00000000E+00
  0.00000000E+00  0.00000000E+00  0.00000000E+00
  0.00000000E+00  0.00000000E+00  0.00000000E+00
  0.00000000E+00  0.00000000E+00  0.00000000E+00
  0.00000000E+00  0.00000000E+00  0.00000000E+00
  0.00000000E+00  0.00000000E+00  0.00000000E+00
  0.00000000E+00  0.00000000E+00  0.00000000E+00
  0.00000000E+00  0.00000000E+00  0.00000000E+00
  0.00000000E+00  0.00000000E+00  0.00000000E+00
  0.00000000E+00  0.00000000E+00  0.00000000E+00
  0.00000000E+00  0.00000000E+00  0.00000000E+00
  0.00000000E+00  0.00000000E+00  0.00000000E+00
  0.00000000E+00  0.00000000E+00  0.00000000E+00
  0.00000000E+00  0.00000000E+00  0.00000000E+00
  0.00000000E+00  0.00000000E+00  0.00000000E+00
