NiCoMn2_32sqsfcc                        
   4.00000000000000     
     0.8795864465816891    0.8827995529391964    1.7746708637040849
     0.8853936651873220    0.8823587242535217   -1.7774090969917216
    -0.8847407274101744    0.8848064611745138    0.0015587244922816
   Ni   Co   Mn
     8     8    16
Direct
 -0.0011998880217704  0.4975920833460791  0.0001779899219078
  0.0005592140797286  0.7522724658599864  0.7475950757589443
 -0.0003445631779493  0.2503368403666150  0.7543193938140677
 -0.0000118459543922  0.0011108299054893  0.4892172340906104
  0.7486651807264870  0.7504561098555317  0.4974001123473247
  0.2483221016616377  0.0015977736914807  0.2453337612791010
  0.7511169670201486  0.2525852853059173  0.5047676384937421
  0.7471855095666657  0.9981416841711263  0.7461130124623958
  0.0042903762167915  0.5040195074930275  0.5001424100391851
  0.7454356190028077  0.7502809233282692 -0.0018794409246133
  0.2524775294005976  0.2483422089246536  0.5050355797739523
  0.4975265588523687  0.4948661007438311  0.5020677931851266
  0.4979143177439587  0.2530985582677142  0.2532348161762982
  0.7459442477522785  0.4975994178720968  0.2507195982329571
  0.4967933271276094  0.2508305834140862  0.7538833467769501
  0.7515680841896424  0.0001398713439508  0.2479262570202919
  0.9934886201773878  0.7415995953355682  0.2459920518572361
  0.2446433603256028  0.7505286785319075  0.0085145898382550
  0.2487446829811458  0.7528142823410645  0.5051221515441304
  0.0100919789423381  0.2612877647676881  0.2621213150163689
  0.2569112545803220  0.5066383989059822  0.2637835865108833
  0.4991381912604288  0.7402909036085100  0.2400176233076918
  0.0003969322546486  0.0033349735559367  0.9879518901890486
  0.2553383169851610  0.2565709772841199  0.0027481425507844
  0.5085501965915146  0.4962937791309476  0.0107190284982381
  0.2513348791238708  0.4964329347653961  0.7616116526828642
  0.4979922165670390  0.7458886072795959  0.7401034407751712
  0.4885350656500079 -0.0097758436308507 -0.0066202143596763
  0.7442514047568364  0.2435388075901649  0.0054367243725186
  0.2568316461844922 -0.0003092813796394  0.7381409938126312
  0.7516405515197805  0.5064059824968764  0.7497744237250367
  0.5058679659128076  0.0051891955268690  0.4885280212305763
 
  0.00000000E+00  0.00000000E+00  0.00000000E+00
  0.00000000E+00  0.00000000E+00  0.00000000E+00
  0.00000000E+00  0.00000000E+00  0.00000000E+00
  0.00000000E+00  0.00000000E+00  0.00000000E+00
  0.00000000E+00  0.00000000E+00  0.00000000E+00
  0.00000000E+00  0.00000000E+00  0.00000000E+00
  0.00000000E+00  0.00000000E+00  0.00000000E+00
  0.00000000E+00  0.00000000E+00  0.00000000E+00
  0.00000000E+00  0.00000000E+00  0.00000000E+00
  0.00000000E+00  0.00000000E+00  0.00000000E+00
  0.00000000E+00  0.00000000E+00  0.00000000E+00
  0.00000000E+00  0.00000000E+00  0.00000000E+00
  0.00000000E+00  0.00000000E+00  0.00000000E+00
  0.00000000E+00  0.00000000E+00  0.00000000E+00
  0.00000000E+00  0.00000000E+00  0.00000000E+00
  0.00000000E+00  0.00000000E+00  0.00000000E+00
  0.00000000E+00  0.00000000E+00  0.00000000E+00
  0.00000000E+00  0.00000000E+00  0.00000000E+00
  0.00000000E+00  0.00000000E+00  0.00000000E+00
  0.00000000E+00  0.00000000E+00  0.00000000E+00
  0.00000000E+00  0.00000000E+00  0.00000000E+00
  0.00000000E+00  0.00000000E+00  0.00000000E+00
  0.00000000E+00  0.00000000E+00  0.00000000E+00
  0.00000000E+00  0.00000000E+00  0.00000000E+00
  0.00000000E+00  0.00000000E+00  0.00000000E+00
  0.00000000E+00  0.00000000E+00  0.00000000E+00
  0.00000000E+00  0.00000000E+00  0.00000000E+00
  0.00000000E+00  0.00000000E+00  0.00000000E+00
  0.00000000E+00  0.00000000E+00  0.00000000E+00
  0.00000000E+00  0.00000000E+00  0.00000000E+00
  0.00000000E+00  0.00000000E+00  0.00000000E+00
  0.00000000E+00  0.00000000E+00  0.00000000E+00
