NiCrPd2_sqsbcc                          
   3.00000000000000     
     0.8934585844713254   -0.9003819578481480    3.7915056062760830
     0.8828634030639126    2.6796143008594360   -1.2635708697804358
    -2.6762645054310967   -0.8810308818282799   -1.2604062665560820
   Ni   Cr   Pd
     8     8    16
Direct
  0.7577582756027217  0.5041788659292410  0.7625514884367477
  0.4952789747494502  0.7568653985927791  0.2506405249368676
  0.2505091054536487  0.7529417485813191  0.4946020589889800
  0.2392551173528923  0.7355476030801091  0.9935701312542947
  0.7508966287527385  0.5008438426593139  0.2465623600201886
  0.0059717490863764  0.2711246222545752  0.7646254419918650
  0.0000964388317566  0.4989383302671697  0.5049228192324511
  0.0009475337615994  0.5089833424501318 -0.0016796671709506
  0.2309253436535715  0.9807406747053040  0.2414114919421128
  0.9883051351787970  0.9847839626285179  0.9863710760238595
  0.7601444308078252  0.2559572818877784  0.5150537899639656
  0.4974658967993970  0.2451398005001608  0.7504074922284893
  0.0011092180201599  0.9903047578924832  0.4911472307246888
  0.2573204844457521  0.2537063192467697  0.5003742720266666
  0.2519749165053630  0.5162863885467696  0.2488933056547559
  0.0126694010909477  0.7507237641578308  0.2519651816909467
  0.2460180201865456  0.4937701803048938  0.7549192513748840
  0.7545103065268172  0.0022059124702715  0.2658168224579340
  0.7577425696691711  0.0140916421078571  0.7501601001894184
  0.4998399575536836  0.2416700006605988  0.2580159496392698
  0.4873596521917182  0.4836460502216591  0.4882435657224429
  0.4971716217160973  0.4866545566054982  0.9880649036412027
  0.5038179758027566  0.0045645242349169  0.0092272432078326
  0.7486976201590232  0.7540881858328423  0.4926077630534038
  0.7618161123814312  0.7482571196508643  0.0051674237171460
  0.2382262030947468  0.9797426646761487  0.7300653233818671
  0.5001198282074801  0.7505844648476703  0.7476831758565485
  0.0092522242499163  0.2576077789961308  0.2544935545625693
  0.9983828503082394  0.7421874588769464  0.7542865258454773
  0.4908071531289318  0.0039547174970491  0.4893566042094463
  0.2426687709832369  0.2567443776608641  0.9944479759911343
  0.7629404837472145  0.2731636619755281  0.0160248192034722
 
  0.00000000E+00  0.00000000E+00  0.00000000E+00
  0.00000000E+00  0.00000000E+00  0.00000000E+00
  0.00000000E+00  0.00000000E+00  0.00000000E+00
  0.00000000E+00  0.00000000E+00  0.00000000E+00
  0.00000000E+00  0.00000000E+00  0.00000000E+00
  0.00000000E+00  0.00000000E+00  0.00000000E+00
  0.00000000E+00  0.00000000E+00  0.00000000E+00
  0.00000000E+00  0.00000000E+00  0.00000000E+00
  0.00000000E+00  0.00000000E+00  0.00000000E+00
  0.00000000E+00  0.00000000E+00  0.00000000E+00
  0.00000000E+00  0.00000000E+00  0.00000000E+00
  0.00000000E+00  0.00000000E+00  0.00000000E+00
  0.00000000E+00  0.00000000E+00  0.00000000E+00
  0.00000000E+00  0.00000000E+00  0.00000000E+00
  0.00000000E+00  0.00000000E+00  0.00000000E+00
  0.00000000E+00  0.00000000E+00  0.00000000E+00
  0.00000000E+00  0.00000000E+00  0.00000000E+00
  0.00000000E+00  0.00000000E+00  0.00000000E+00
  0.00000000E+00  0.00000000E+00  0.00000000E+00
  0.00000000E+00  0.00000000E+00  0.00000000E+00
  0.00000000E+00  0.00000000E+00  0.00000000E+00
  0.00000000E+00  0.00000000E+00  0.00000000E+00
  0.00000000E+00  0.00000000E+00  0.00000000E+00
  0.00000000E+00  0.00000000E+00  0.00000000E+00
  0.00000000E+00  0.00000000E+00  0.00000000E+00
  0.00000000E+00  0.00000000E+00  0.00000000E+00
  0.00000000E+00  0.00000000E+00  0.00000000E+00
  0.00000000E+00  0.00000000E+00  0.00000000E+00
  0.00000000E+00  0.00000000E+00  0.00000000E+00
  0.00000000E+00  0.00000000E+00  0.00000000E+00
  0.00000000E+00  0.00000000E+00  0.00000000E+00
  0.00000000E+00  0.00000000E+00  0.00000000E+00
