NiCo2Mn_sqsbcc                          
   3.00000000000000     
     0.8975907795148832   -0.8383085848480838    2.9317197602658980
     1.0200705181922416    2.5122044014082596   -1.0183622815471898
    -2.9383957375246004   -0.8360688213101326   -0.8965505242770826
   Ni   Co   Mn
     8    16     8
Direct
  0.6904302239330256  0.4625223384978568  0.6896662692499504
  0.5645357423280131  0.7904975824481998  0.3107318423577780
  0.3106832922640961  0.7891385076719243  0.5652245337183027
  0.3135164882722484  0.7904987872236477  0.0631666250421730
  0.6871307338183854  0.4564512113645458  0.1882549918471126
  0.0655279130401334  0.2904237907938164  0.8114088251692076
  0.9360211783835646  0.4592721756081843  0.4376778529494897
  0.9344317267372404  0.4546540750706997  0.9366716936348691
  0.1942755935613931  0.4685419930445357  0.6899115156511409
  0.6899690116641095  0.9583144253738212  0.1825652334958583
  0.6898724214488022  0.9616330309204807  0.6901519077088877
  0.5595003747879926  0.2949731487883754  0.3107837267249360
  0.4321599995984416  0.4537114227912415  0.4325145339861055
  0.4398883894690668  0.4608825904416867  0.9406566738014920
  0.4359328635828769  0.9582184507525635  0.9420258170086674
  0.8101763224216565  0.7934600051993576  0.5637679282411058
  0.8154497031989142  0.7958273843733209  0.0628621214873081
  0.1853370716934248  0.9568858459254158  0.6898994550521377
  0.5616918426479732  0.7910545132505254  0.8087969934936248
  0.0568770729663396  0.2908578619340913  0.3132492354287414
  0.0695047980996173  0.8011293791082835  0.8187858037989967
  0.4303714786535174  0.9508693315425649  0.4340798067511569
  0.3156647746437825  0.2900395842983721  0.0568966939235390
  0.8069874130945730  0.2819896112688293  0.0618427134146392
  0.1888508890466234  0.9580300917151894  0.1949934571702764
  0.9394455326509159  0.9571955074408569  0.9392352824625744
  0.8090270409207957  0.2882083970404279  0.5613113338708851
  0.5518993388200327  0.2823650483562088  0.8003824055896510
  0.9455319813981066  0.9616727215027947  0.4353532586826356
  0.3221580113368647  0.3052955916711431  0.5702714846844273
  0.1905445759925815  0.4657497324053899  0.1898947711927511
  0.0566061995248983  0.7796358621756561  0.3069652124095927
 
  0.00000000E+00  0.00000000E+00  0.00000000E+00
  0.00000000E+00  0.00000000E+00  0.00000000E+00
  0.00000000E+00  0.00000000E+00  0.00000000E+00
  0.00000000E+00  0.00000000E+00  0.00000000E+00
  0.00000000E+00  0.00000000E+00  0.00000000E+00
  0.00000000E+00  0.00000000E+00  0.00000000E+00
  0.00000000E+00  0.00000000E+00  0.00000000E+00
  0.00000000E+00  0.00000000E+00  0.00000000E+00
  0.00000000E+00  0.00000000E+00  0.00000000E+00
  0.00000000E+00  0.00000000E+00  0.00000000E+00
  0.00000000E+00  0.00000000E+00  0.00000000E+00
  0.00000000E+00  0.00000000E+00  0.00000000E+00
  0.00000000E+00  0.00000000E+00  0.00000000E+00
  0.00000000E+00  0.00000000E+00  0.00000000E+00
  0.00000000E+00  0.00000000E+00  0.00000000E+00
  0.00000000E+00  0.00000000E+00  0.00000000E+00
  0.00000000E+00  0.00000000E+00  0.00000000E+00
  0.00000000E+00  0.00000000E+00  0.00000000E+00
  0.00000000E+00  0.00000000E+00  0.00000000E+00
  0.00000000E+00  0.00000000E+00  0.00000000E+00
  0.00000000E+00  0.00000000E+00  0.00000000E+00
  0.00000000E+00  0.00000000E+00  0.00000000E+00
  0.00000000E+00  0.00000000E+00  0.00000000E+00
  0.00000000E+00  0.00000000E+00  0.00000000E+00
  0.00000000E+00  0.00000000E+00  0.00000000E+00
  0.00000000E+00  0.00000000E+00  0.00000000E+00
  0.00000000E+00  0.00000000E+00  0.00000000E+00
  0.00000000E+00  0.00000000E+00  0.00000000E+00
  0.00000000E+00  0.00000000E+00  0.00000000E+00
  0.00000000E+00  0.00000000E+00  0.00000000E+00
  0.00000000E+00  0.00000000E+00  0.00000000E+00
  0.00000000E+00  0.00000000E+00  0.00000000E+00
