FeCrPd_bccsqs                           
   3.00000000000000     
     1.8871337668626715   -1.9114392230906572    0.0025232295179098
    -1.8714530826696136    0.0136349730250057    2.2127561687325379
    -1.4082237120516985   -1.4240350625235589   -1.6762571762574017
   Fe   Cr   Pd
    12    12    12
Direct
  0.8366802922901905  0.1463090594309102  0.2454912601559987
  0.8418402141871344  0.1730679811879516  0.5662538535673932
  0.3377790453557875  0.1849821210220270  0.1975699802701903
  0.8413381827593248  0.6846646396850324  0.2112449768464444
  0.4856562202482568  0.4911176304476554  0.6859424420144971
  0.0136966331088333  0.0225023500723989  0.6443041167793483
  0.1818877396990396  0.3341166236274845  0.7983564116228657
 -0.0108472702995329  0.9845360562171880  0.9944307980143617
  0.6737471896369600  0.8468957506529414  0.0887709667416651
  0.8328545615916161  0.6724411505238581  0.8942057138433394
  0.0144487210295469  0.0076918354284153  0.3148918033584709
  0.5097679461898696  0.0173967313633701  0.9726413572050556
  0.1426456150166174  0.3117828070606647  0.1359390859045955
  0.3319820124212776  0.6471176807050875  0.2229824433517088
  0.6486137586543308  0.3269780558007080  0.4502311022097111
  0.0013577422598688  0.4888063687682720  0.6889238781355498
  0.4971058379063395  0.4852719376632006  0.3706340460505876
  0.6770118156673365  0.3164530614709661  0.1434879259738797
  0.3243716134721504  0.1751279051914497  0.5272131727285118
  0.1728094496814273  0.3219636262429766  0.4549873062543616
  0.3044685502253822  0.1389751799029173  0.8761722644643962
  0.1605763920758379  0.8360667461832075  0.7757075559079027
  0.1663265559791692  0.8382639630036035  0.4200810169063583
  0.1788152378983917  0.8563184294742969  0.0904496288492624
  0.6761737746633792  0.8406381864583610  0.4118913893223581
  0.0045495870085130  0.5175554519153653  0.0209228081005511
  0.3407280247628037  0.6750371979445752  0.8994301150935997
  0.6596556511927293  0.3376176713218062  0.7957944895778547
  0.4871473031506047  0.0016525493749157  0.2952116073223898
  0.9921294395794512  0.4874142029941048  0.3540445906074827
  0.4975704678165840  0.4859589288515117  0.0317785348965147
  0.4853155970813534  0.0066042057993416  0.6428556463372052
  0.8506106657217934  0.1728368579850974  0.9053655496865531
  0.3253380151798018  0.6605387821553083  0.5532386943423442
  0.6733751333014455  0.8335009261603565  0.7606766716206560
  0.8424722834863901  0.6717973479127003  0.5578767959360420
 
  0.00000000E+00  0.00000000E+00  0.00000000E+00
  0.00000000E+00  0.00000000E+00  0.00000000E+00
  0.00000000E+00  0.00000000E+00  0.00000000E+00
  0.00000000E+00  0.00000000E+00  0.00000000E+00
  0.00000000E+00  0.00000000E+00  0.00000000E+00
  0.00000000E+00  0.00000000E+00  0.00000000E+00
  0.00000000E+00  0.00000000E+00  0.00000000E+00
  0.00000000E+00  0.00000000E+00  0.00000000E+00
  0.00000000E+00  0.00000000E+00  0.00000000E+00
  0.00000000E+00  0.00000000E+00  0.00000000E+00
  0.00000000E+00  0.00000000E+00  0.00000000E+00
  0.00000000E+00  0.00000000E+00  0.00000000E+00
  0.00000000E+00  0.00000000E+00  0.00000000E+00
  0.00000000E+00  0.00000000E+00  0.00000000E+00
  0.00000000E+00  0.00000000E+00  0.00000000E+00
  0.00000000E+00  0.00000000E+00  0.00000000E+00
  0.00000000E+00  0.00000000E+00  0.00000000E+00
  0.00000000E+00  0.00000000E+00  0.00000000E+00
  0.00000000E+00  0.00000000E+00  0.00000000E+00
  0.00000000E+00  0.00000000E+00  0.00000000E+00
  0.00000000E+00  0.00000000E+00  0.00000000E+00
  0.00000000E+00  0.00000000E+00  0.00000000E+00
  0.00000000E+00  0.00000000E+00  0.00000000E+00
  0.00000000E+00  0.00000000E+00  0.00000000E+00
  0.00000000E+00  0.00000000E+00  0.00000000E+00
  0.00000000E+00  0.00000000E+00  0.00000000E+00
  0.00000000E+00  0.00000000E+00  0.00000000E+00
  0.00000000E+00  0.00000000E+00  0.00000000E+00
  0.00000000E+00  0.00000000E+00  0.00000000E+00
  0.00000000E+00  0.00000000E+00  0.00000000E+00
  0.00000000E+00  0.00000000E+00  0.00000000E+00
  0.00000000E+00  0.00000000E+00  0.00000000E+00
  0.00000000E+00  0.00000000E+00  0.00000000E+00
  0.00000000E+00  0.00000000E+00  0.00000000E+00
  0.00000000E+00  0.00000000E+00  0.00000000E+00
  0.00000000E+00  0.00000000E+00  0.00000000E+00
