FeMnMn_bccsqs                           
   3.00000000000000     
     1.8826952859678825   -1.8874950458123219    0.0001182525591042
    -1.8827538859497832   -0.0001773023049364    1.8754533638419510
    -1.4136611291750143   -1.4171667687723111   -1.4080513391758367
   Fe   Mn   Mn
    12    12    12
Direct
  0.8320662277657914  0.1641356829250973  0.2246546066447334
  0.8364452696475864  0.1673501418818785  0.5553926117999225
  0.3316512313189496  0.1635628956436049  0.2258379437646282
  0.8339248611352584  0.6682326831853280  0.2217076621726222
  0.5012125489139844  0.4993187044440662  0.6712003278778976
  0.0016927624442119  0.0014389293314088  0.6655084188331239
  0.1673976807518902  0.3328920691063415  0.7764634033274223
 -0.0017537297274898 -0.0010795473321359 -0.0009188399643581
  0.6659764529853520  0.8325231411193512  0.1105305450590374
  0.8300042318655491  0.6667160508517481  0.8856240868850499
  0.0004259085411577 -0.0009721261451750  0.3329635202586317
  0.5004047020609795 -0.0013275304416933  0.0006913655291769
  0.1680935073594090  0.3363361265914145  0.1110375839691105
  0.3307529669469948  0.6711555308196636  0.2277380824012792
  0.6695194347674817  0.3383556087372048  0.4488909660059007
 -0.0004565216024444  0.5046487526168368  0.6647066718006213
  0.4994227075295216  0.4982882658053758  0.3347040301545992
  0.6694200338476036  0.3367099863614599  0.1102909976528687
  0.3337750426860974  0.1659823269872401  0.5552886212464577
  0.1695723726379904  0.3418700513232966  0.4431711613566092
  0.3355968043455375  0.1678721613724396  0.8906009470739569
  0.1722251505100254  0.8352801769720911  0.7738917442914390
  0.1663929293060315  0.8276152998503464  0.4410240070604212
  0.1640876990382930  0.8304168568809834  0.1062033854491330
  0.6642086549438606  0.8309820536455695  0.4470594361388838
  0.0015260430561671  0.5011263578629604 -0.0008437589386352
  0.3338167496050515  0.6665328061682155  0.8907155083032592
  0.6645279955521929  0.3239617663149643  0.7763836267014429
  0.5013518757782963  0.0008447034235012  0.3339055556315534
 -0.0011958687862280  0.4958351839583800  0.3320258700632652
  0.4965999230091933  0.4963338537548893  0.0063741022840205
  0.4963317950025146 -0.0015108877068674  0.6636416581496151
  0.8349406176533248  0.1705012593271321  0.8884653521901525
  0.3320980593216949  0.6635556553580761  0.5559322903492493
  0.6624109085182693  0.8387655002625936  0.7750243830619019
  0.8355329712699006  0.6657495087424128  0.5541121254150069
 
  0.00000000E+00  0.00000000E+00  0.00000000E+00
  0.00000000E+00  0.00000000E+00  0.00000000E+00
  0.00000000E+00  0.00000000E+00  0.00000000E+00
  0.00000000E+00  0.00000000E+00  0.00000000E+00
  0.00000000E+00  0.00000000E+00  0.00000000E+00
  0.00000000E+00  0.00000000E+00  0.00000000E+00
  0.00000000E+00  0.00000000E+00  0.00000000E+00
  0.00000000E+00  0.00000000E+00  0.00000000E+00
  0.00000000E+00  0.00000000E+00  0.00000000E+00
  0.00000000E+00  0.00000000E+00  0.00000000E+00
  0.00000000E+00  0.00000000E+00  0.00000000E+00
  0.00000000E+00  0.00000000E+00  0.00000000E+00
  0.00000000E+00  0.00000000E+00  0.00000000E+00
  0.00000000E+00  0.00000000E+00  0.00000000E+00
  0.00000000E+00  0.00000000E+00  0.00000000E+00
  0.00000000E+00  0.00000000E+00  0.00000000E+00
  0.00000000E+00  0.00000000E+00  0.00000000E+00
  0.00000000E+00  0.00000000E+00  0.00000000E+00
  0.00000000E+00  0.00000000E+00  0.00000000E+00
  0.00000000E+00  0.00000000E+00  0.00000000E+00
  0.00000000E+00  0.00000000E+00  0.00000000E+00
  0.00000000E+00  0.00000000E+00  0.00000000E+00
  0.00000000E+00  0.00000000E+00  0.00000000E+00
  0.00000000E+00  0.00000000E+00  0.00000000E+00
  0.00000000E+00  0.00000000E+00  0.00000000E+00
  0.00000000E+00  0.00000000E+00  0.00000000E+00
  0.00000000E+00  0.00000000E+00  0.00000000E+00
  0.00000000E+00  0.00000000E+00  0.00000000E+00
  0.00000000E+00  0.00000000E+00  0.00000000E+00
  0.00000000E+00  0.00000000E+00  0.00000000E+00
  0.00000000E+00  0.00000000E+00  0.00000000E+00
  0.00000000E+00  0.00000000E+00  0.00000000E+00
  0.00000000E+00  0.00000000E+00  0.00000000E+00
  0.00000000E+00  0.00000000E+00  0.00000000E+00
  0.00000000E+00  0.00000000E+00  0.00000000E+00
  0.00000000E+00  0.00000000E+00  0.00000000E+00
