FeNiPd_bccsqs                           
   3.00000000000000     
     1.7557431898310842   -2.4709211160374815   -0.0003754537953762
    -1.7584032527672564   -0.0067006306290424    1.7617984318778517
    -1.3092796662086341   -1.8575992445983758   -1.3093850716950934
   Fe   Ni   Pd
    12    12    12
Direct
  0.8413535698082791  0.1778090774171800  0.2249593467909207
  0.8419275880598469  0.1702830218854749  0.5542003525233483
  0.3241969679395140  0.1702566381393809  0.2294125075353278
  0.8237985521984612  0.6580570117323641  0.2219479518648363
  0.4974946353775973  0.4858079724679113  0.6604425642843198
  0.0133915493047097  0.0052278712048955  0.6629034326466756
  0.1666514220121477  0.3266966045779890  0.7763124100666632
  0.0054891214048800  0.9910121073176841  0.0025301549815338
  0.6637149673445242  0.8240221200545950  0.1142114784571547
  0.8363918838708696  0.6661529542370493  0.8881394848162406
  0.0040157860277153  0.0040932262745359  0.3309984419118704
  0.4893868711555582  0.0010249367829811  0.9991683318256284
  0.1598701644997196  0.3171477977297723  0.1097446817196120
  0.3402996388274354  0.6730248577330418  0.2167399978327242
  0.6706200599112009  0.3355661959714683  0.4351844359795878
  0.0029236326526442  0.5010239037147158  0.6693520745353849
  0.4987896418636251  0.4874165654003514  0.3405595737493040
  0.6656697531099742  0.3417435539951671  0.1190302707142366
  0.3282203935509582  0.1722380266283610  0.5582011924323886
  0.1655398353357780  0.3186587158954665  0.4466907785413201
  0.3197983223146022  0.1600270598762077  0.8925555536208949
  0.1587248345597976  0.8413508244862100  0.7738770904563455
  0.1714517408930681  0.8509915085915311  0.4415232422114450
  0.1697955769398063  0.8461756258238784  0.1174472944591099
  0.6713625459739939  0.8353370531285330  0.4350412854578748
  0.9981476121257814  0.5102194021940433  0.0009925406196523
  0.3275433515622564  0.6619293853344127  0.8924742182002737
  0.6678529973235168  0.3326713644676446  0.7786947810541607
  0.5016648172791900  0.0102632245837227  0.3172104751646214
  0.0144879789321543  0.5007304081762631  0.3348691787320815
  0.4930673106124418  0.4908262809206252  0.0113632887779984
  0.4908730938975903  0.0056881842978371  0.6653777766500476
  0.8378100288432281  0.1651858100681062  0.8989764773769154
  0.3230324118331819  0.6531561380872651  0.5474285176499404
  0.6710328030515086  0.8366782213142038  0.7809928633543747
  0.8436085396024491  0.6715063494891106  0.5504459530051679
 
  0.00000000E+00  0.00000000E+00  0.00000000E+00
  0.00000000E+00  0.00000000E+00  0.00000000E+00
  0.00000000E+00  0.00000000E+00  0.00000000E+00
  0.00000000E+00  0.00000000E+00  0.00000000E+00
  0.00000000E+00  0.00000000E+00  0.00000000E+00
  0.00000000E+00  0.00000000E+00  0.00000000E+00
  0.00000000E+00  0.00000000E+00  0.00000000E+00
  0.00000000E+00  0.00000000E+00  0.00000000E+00
  0.00000000E+00  0.00000000E+00  0.00000000E+00
  0.00000000E+00  0.00000000E+00  0.00000000E+00
  0.00000000E+00  0.00000000E+00  0.00000000E+00
  0.00000000E+00  0.00000000E+00  0.00000000E+00
  0.00000000E+00  0.00000000E+00  0.00000000E+00
  0.00000000E+00  0.00000000E+00  0.00000000E+00
  0.00000000E+00  0.00000000E+00  0.00000000E+00
  0.00000000E+00  0.00000000E+00  0.00000000E+00
  0.00000000E+00  0.00000000E+00  0.00000000E+00
  0.00000000E+00  0.00000000E+00  0.00000000E+00
  0.00000000E+00  0.00000000E+00  0.00000000E+00
  0.00000000E+00  0.00000000E+00  0.00000000E+00
  0.00000000E+00  0.00000000E+00  0.00000000E+00
  0.00000000E+00  0.00000000E+00  0.00000000E+00
  0.00000000E+00  0.00000000E+00  0.00000000E+00
  0.00000000E+00  0.00000000E+00  0.00000000E+00
  0.00000000E+00  0.00000000E+00  0.00000000E+00
  0.00000000E+00  0.00000000E+00  0.00000000E+00
  0.00000000E+00  0.00000000E+00  0.00000000E+00
  0.00000000E+00  0.00000000E+00  0.00000000E+00
  0.00000000E+00  0.00000000E+00  0.00000000E+00
  0.00000000E+00  0.00000000E+00  0.00000000E+00
  0.00000000E+00  0.00000000E+00  0.00000000E+00
  0.00000000E+00  0.00000000E+00  0.00000000E+00
  0.00000000E+00  0.00000000E+00  0.00000000E+00
  0.00000000E+00  0.00000000E+00  0.00000000E+00
  0.00000000E+00  0.00000000E+00  0.00000000E+00
  0.00000000E+00  0.00000000E+00  0.00000000E+00
