NiCo2Pd_32sqsfcc                        
   4.00000000000000     
     0.9161104071743036    0.9186693067106949    1.7965736911838470
     0.9144748386900434    0.9151769772949228   -1.7940296882446396
    -0.9192319562485666    0.9208582570765045    0.0004511427992853
   Ni   Co   Pd
     8    16     8
Direct
  0.0081290345777183  0.5020744166828395  0.9990727374312336
  0.0054365607439234  0.7542568530505318  0.7483417241049540
  0.9951270717100159  0.2409926684621401  0.7627088939114831
  0.9974774248269858  0.9941531195936626  0.5038341885855692
  0.7559619557587389  0.7559373926211056  0.4990723785431850
  0.2460391298244815  0.9916788621454388  0.2475638278381963
  0.7600467818267079  0.2517700439438576  0.5117558493815357
  0.7450606880645908  0.0056455992503728  0.7482014617594701
  0.0091779436727238  0.7592012175739312  0.2494602259806962
  0.2464015241918657  0.7508125136911594  0.9986052439172289
  0.2529858656850933  0.7544771714191634  0.5016708570930511
  0.9985919312943796  0.2483845635134868  0.2335063524713215
  0.2539337221478238  0.5058010433899433  0.2298013360740451
  0.4866911331159411  0.7505971780397233  0.2414742020702696
  0.0102622813243932  0.0028023751764078  0.9995792392051190
  0.2431938989135368  0.2497972961307027  0.0019122245054933
  0.4916412845631823  0.5037752633862522  0.0019315081509418
  0.2551480767358946  0.5062775472067131  0.7723807813806567
  0.4909363642730306  0.7533920816373719  0.7545638537476854
  0.4871615515983199  0.9842732700446428  0.9912239333234210
  0.7647375380766904  0.2577426224926230  0.9853354508144315
  0.2455282763807588  0.9910588406926305  0.7554281620354081
  0.7559779071280890  0.4989961118304857  0.7508609652340154
  0.4878521691119432  0.9837988259697769  0.5105426933390002
  0.0131136250561592  0.4995717930609721  0.5057718887785029
  0.7497666791305577  0.7527702620994463  0.9871406865553242
  0.2366779455394487  0.2489885515430658  0.5011778124775702
  0.5008563723556851  0.5130026771773031  0.5039759233784493
  0.5015894677998178  0.2363918377989957  0.2494082930380558
  0.7566456868065005  0.5001533814114163  0.2466571741912194
  0.5031885400925405  0.2440946785856878  0.7548420749284207
  0.7446615676724756  0.0073299403781487  0.2521980557540535
 
  0.00000000E+00  0.00000000E+00  0.00000000E+00
  0.00000000E+00  0.00000000E+00  0.00000000E+00
  0.00000000E+00  0.00000000E+00  0.00000000E+00
  0.00000000E+00  0.00000000E+00  0.00000000E+00
  0.00000000E+00  0.00000000E+00  0.00000000E+00
  0.00000000E+00  0.00000000E+00  0.00000000E+00
  0.00000000E+00  0.00000000E+00  0.00000000E+00
  0.00000000E+00  0.00000000E+00  0.00000000E+00
  0.00000000E+00  0.00000000E+00  0.00000000E+00
  0.00000000E+00  0.00000000E+00  0.00000000E+00
  0.00000000E+00  0.00000000E+00  0.00000000E+00
  0.00000000E+00  0.00000000E+00  0.00000000E+00
  0.00000000E+00  0.00000000E+00  0.00000000E+00
  0.00000000E+00  0.00000000E+00  0.00000000E+00
  0.00000000E+00  0.00000000E+00  0.00000000E+00
  0.00000000E+00  0.00000000E+00  0.00000000E+00
  0.00000000E+00  0.00000000E+00  0.00000000E+00
  0.00000000E+00  0.00000000E+00  0.00000000E+00
  0.00000000E+00  0.00000000E+00  0.00000000E+00
  0.00000000E+00  0.00000000E+00  0.00000000E+00
  0.00000000E+00  0.00000000E+00  0.00000000E+00
  0.00000000E+00  0.00000000E+00  0.00000000E+00
  0.00000000E+00  0.00000000E+00  0.00000000E+00
  0.00000000E+00  0.00000000E+00  0.00000000E+00
  0.00000000E+00  0.00000000E+00  0.00000000E+00
  0.00000000E+00  0.00000000E+00  0.00000000E+00
  0.00000000E+00  0.00000000E+00  0.00000000E+00
  0.00000000E+00  0.00000000E+00  0.00000000E+00
  0.00000000E+00  0.00000000E+00  0.00000000E+00
  0.00000000E+00  0.00000000E+00  0.00000000E+00
  0.00000000E+00  0.00000000E+00  0.00000000E+00
  0.00000000E+00  0.00000000E+00  0.00000000E+00
