Fe2NiMn_SQSfcc                          
   1.00000000000000     
     3.5361191631003872    3.5669381385447223    7.1429129226816563
     3.5314092701076265    3.5558134372012451   -7.1350282079011720
    -3.5236849470758633    3.5513362708822265    0.0016449801337645
   Fe   Ni   Mn
    16     8     8
Direct
  0.0022785490398126  0.7508253891831407  0.2454237859584385
  0.2453244833903714  0.7551931752559005 -0.0022745898568943
  0.2448546805950519  0.7527857946493770  0.5028227835435219
  0.0011479450266395  0.2532577411825087  0.2467702737908690
  0.2520592515623352  0.5040879608631506  0.2478216976740148
  0.4983181337285169  0.7495290877759503  0.2531524882599547
  0.9971213769600384  0.9977566303395236  0.9973846653174300
  0.2507224888184065  0.2448240732576653 -0.0002675107499233
  0.5057790212970000  0.4969571153793083  0.0072256539997825
  0.2493273909883003  0.4982184577802929  0.7492373285372714
  0.4959845451296128  0.7455287168121227  0.7544720143173556
  0.4971511519372926  0.0015595213098539  0.9996427665975617
  0.7475867051704147  0.2515398117926941  0.0004645843348864
  0.2439205131105161  0.9992890272791194  0.7400467631448736
  0.7521265006532998  0.4992496189500663  0.7528449720567413
  0.4972400012766118 -0.0016464995661527  0.5017827734320144
  0.9995814499049244  0.4991657747187857  0.5014925988466830
  0.7496640662456955  0.7486696054247175  0.0046336236981676
  0.2514179758350458  0.2527602106821434  0.4971177934655703
  0.5028785437410335  0.4984251705563031  0.5040396368818111
  0.5038691548113045  0.2492753305496263  0.2521909153477562
  0.7510110977477242  0.4995455853442672  0.2552133762702978
  0.5019910966066803  0.2498193763541628  0.7469736630300733
  0.7498864115294575  0.0009803911490538  0.2471896484262037
 -0.0003459592316091  0.4994415787505563  0.0006628119679804
 -0.0006518405539833  0.7547442157340472  0.7481522281454072
 -0.0006807420884756  0.2450483325954949  0.7415889517745070
  0.0020044577548753  0.0051721137679736  0.4973270447942190
  0.7553337372950879  0.7550671307990594  0.5052654087555406
  0.2480901986106161  0.9994040556505928  0.2479568078602067
  0.7557169989043433  0.2432374985278774  0.5033167437766626
  0.7492906142030585  0.0002880071508103  0.7503282966010154
 
  0.00000000E+00  0.00000000E+00  0.00000000E+00
  0.00000000E+00  0.00000000E+00  0.00000000E+00
  0.00000000E+00  0.00000000E+00  0.00000000E+00
  0.00000000E+00  0.00000000E+00  0.00000000E+00
  0.00000000E+00  0.00000000E+00  0.00000000E+00
  0.00000000E+00  0.00000000E+00  0.00000000E+00
  0.00000000E+00  0.00000000E+00  0.00000000E+00
  0.00000000E+00  0.00000000E+00  0.00000000E+00
  0.00000000E+00  0.00000000E+00  0.00000000E+00
  0.00000000E+00  0.00000000E+00  0.00000000E+00
  0.00000000E+00  0.00000000E+00  0.00000000E+00
  0.00000000E+00  0.00000000E+00  0.00000000E+00
  0.00000000E+00  0.00000000E+00  0.00000000E+00
  0.00000000E+00  0.00000000E+00  0.00000000E+00
  0.00000000E+00  0.00000000E+00  0.00000000E+00
  0.00000000E+00  0.00000000E+00  0.00000000E+00
  0.00000000E+00  0.00000000E+00  0.00000000E+00
  0.00000000E+00  0.00000000E+00  0.00000000E+00
  0.00000000E+00  0.00000000E+00  0.00000000E+00
  0.00000000E+00  0.00000000E+00  0.00000000E+00
  0.00000000E+00  0.00000000E+00  0.00000000E+00
  0.00000000E+00  0.00000000E+00  0.00000000E+00
  0.00000000E+00  0.00000000E+00  0.00000000E+00
  0.00000000E+00  0.00000000E+00  0.00000000E+00
  0.00000000E+00  0.00000000E+00  0.00000000E+00
  0.00000000E+00  0.00000000E+00  0.00000000E+00
  0.00000000E+00  0.00000000E+00  0.00000000E+00
  0.00000000E+00  0.00000000E+00  0.00000000E+00
  0.00000000E+00  0.00000000E+00  0.00000000E+00
  0.00000000E+00  0.00000000E+00  0.00000000E+00
  0.00000000E+00  0.00000000E+00  0.00000000E+00
  0.00000000E+00  0.00000000E+00  0.00000000E+00
