FeNiMn_bccsqs                           
   3.00000000000000     
     1.7132368048710769   -1.7114414419729551    0.0060597441921403
    -1.6911265622529899    0.0169005724376972    2.3795397884851766
    -1.2565412584357027   -1.2510104451254369   -1.7847484674278926
   Fe   Ni   Mn
    12    12    12
Direct
  0.8298221809331493  0.1657457956397966  0.2155535583634405
  0.8378954971498908  0.1597085537147647  0.5505861973286716
  0.3425364559542158  0.1754819468376244  0.2201018636357121
  0.8289462467600539  0.6689493942375615  0.2158951052025854
  0.5024384157036388  0.5011467209768441  0.6634590989042115
  0.0129268598533906  0.0021809489831950  0.6687567330612155
  0.1618377487876294  0.3247011862359411  0.7625388662954855
  0.0054383252415765  0.0026913588779434  0.0047791043016775
  0.6610794809120267  0.8367878676472504  0.1162568517963125
  0.8347209103665660  0.6718409338325573  0.8955692505741478
  0.0030606752892782 -0.0016696627898225  0.3334924559503760
  0.4980852219965764  0.0052270469351594  0.0036574142292535
  0.1666479260014639  0.3306521280002719  0.1082211611894970
  0.3355879607919430  0.6657212052653837  0.2256136812292130
  0.6665037827499942  0.3276893189615793  0.4395471275920769
 -0.0050797977882439  0.4941388847288765  0.6694898445409214
  0.4998039621407739  0.4981570749632526  0.3337711387392548
  0.6681666611354422  0.3384764810572172  0.1068529446447989
  0.3331882693482199  0.1690798167331734  0.5506909726152273
  0.1653386693217260  0.3301298662072200  0.4379820184149239
  0.3347835868830288  0.1688663047746470  0.8887549373390641
  0.1633486736601611  0.8334346528875525  0.7833126163669727
  0.1603764468718318  0.8310721283911723  0.4436668201817627
  0.1732041819984292  0.8367772328012330  0.1165466383368459
  0.6710230058751103  0.8287119329725881  0.4504207062042170
  0.0112864349513574  0.5033228310594642  0.0060420509476983
  0.3340979266383667  0.6695189371733932  0.8875942482603549
  0.6636270276433494  0.3263525981214541  0.7703890533265123
  0.4940584834564635  0.9926663694304306  0.3459493220043183
 -0.0029074261510168  0.4963776754856468  0.3293090376519580
  0.4861235499563588  0.4987333865283353  0.0023858925384538
  0.4863217897257068  0.9985276489424059  0.6694848775731030
  0.8406780824201615  0.1729566017079285  0.8907852874220428
  0.3235204911370478  0.6647042380526843  0.5542863571143652
  0.6737755691605515  0.8496032313067385  0.7839002771568832
  0.8377367231237877  0.6615373633185490  0.5543564889664370
 
  0.00000000E+00  0.00000000E+00  0.00000000E+00
  0.00000000E+00  0.00000000E+00  0.00000000E+00
  0.00000000E+00  0.00000000E+00  0.00000000E+00
  0.00000000E+00  0.00000000E+00  0.00000000E+00
  0.00000000E+00  0.00000000E+00  0.00000000E+00
  0.00000000E+00  0.00000000E+00  0.00000000E+00
  0.00000000E+00  0.00000000E+00  0.00000000E+00
  0.00000000E+00  0.00000000E+00  0.00000000E+00
  0.00000000E+00  0.00000000E+00  0.00000000E+00
  0.00000000E+00  0.00000000E+00  0.00000000E+00
  0.00000000E+00  0.00000000E+00  0.00000000E+00
  0.00000000E+00  0.00000000E+00  0.00000000E+00
  0.00000000E+00  0.00000000E+00  0.00000000E+00
  0.00000000E+00  0.00000000E+00  0.00000000E+00
  0.00000000E+00  0.00000000E+00  0.00000000E+00
  0.00000000E+00  0.00000000E+00  0.00000000E+00
  0.00000000E+00  0.00000000E+00  0.00000000E+00
  0.00000000E+00  0.00000000E+00  0.00000000E+00
  0.00000000E+00  0.00000000E+00  0.00000000E+00
  0.00000000E+00  0.00000000E+00  0.00000000E+00
  0.00000000E+00  0.00000000E+00  0.00000000E+00
  0.00000000E+00  0.00000000E+00  0.00000000E+00
  0.00000000E+00  0.00000000E+00  0.00000000E+00
  0.00000000E+00  0.00000000E+00  0.00000000E+00
  0.00000000E+00  0.00000000E+00  0.00000000E+00
  0.00000000E+00  0.00000000E+00  0.00000000E+00
  0.00000000E+00  0.00000000E+00  0.00000000E+00
  0.00000000E+00  0.00000000E+00  0.00000000E+00
  0.00000000E+00  0.00000000E+00  0.00000000E+00
  0.00000000E+00  0.00000000E+00  0.00000000E+00
  0.00000000E+00  0.00000000E+00  0.00000000E+00
  0.00000000E+00  0.00000000E+00  0.00000000E+00
  0.00000000E+00  0.00000000E+00  0.00000000E+00
  0.00000000E+00  0.00000000E+00  0.00000000E+00
  0.00000000E+00  0.00000000E+00  0.00000000E+00
  0.00000000E+00  0.00000000E+00  0.00000000E+00
