FeNiCr_bccsqs                           
   3.00000000000000     
     1.9093874987779227   -1.9128840552498172    0.0052972784067955
    -1.9729267964325365   -0.0668679469180178    1.6773064986024790
    -1.5257936057801054   -1.5210139470618089   -1.2555181949544947
   Fe   Ni   Cr
    12    12    12
Direct
  0.6846706039392667  0.8657542462737825  0.4806817212697840
  0.0119660348220944  0.5285514669552569  0.0334114315886540
  0.3272933978358419  0.6428721938383452  0.8575836099073391
  0.6516529872510830  0.3034628883764557  0.7418645236846668
  0.4885303877541746  0.9709214603145246  0.2954526844121114
  0.0090843906542520  0.5259224790504772  0.3682178915398554
  0.5173444309990788  0.5305139761723234  0.0363024862215803
  0.4887152044638970  0.9691343552015890  0.6287794091250235
  0.8494621448335580  0.2003107999045400  0.9244710923882532
  0.3240542461229386  0.6387641959497881  0.5216874893294167
  0.6901709380047991  0.8668153486057225  0.8125324948938242
  0.8142702618747368  0.6380545930834260  0.5201001229951580
  0.1565545184666784  0.3104902790392447  0.0720843159428748
  0.3154398499741540  0.6352571868270922  0.1882992382962580
  0.6523766858366921  0.3037598219701408  0.4087514445715723
  0.0173064828718904  0.5326083255758227  0.7014100163888990
  0.5117232815985852  0.5240299966365544  0.3725149600349029
  0.6512062888094908  0.3042506661755873  0.0748156962551087
  0.3456643154475003  0.1932413710100022  0.5897906492176360
  0.1519366669657895  0.3082963648679043  0.4082551478369641
  0.3463647005978131  0.1960990926523299  0.9264287353841123
  0.1826224164173621  0.8643626858859920  0.8128362758867052
  0.1803010027917518  0.8584206392706526  0.4787978736459299
  0.1816262281515376  0.8590480573898065  0.1470325727986938
  0.8441392613648063  0.1882583175588046  0.2553607500558852
  0.8370923900870649  0.1874174280364707  0.6048344677493590
  0.3479039249751671  0.1946566465664013  0.2580727449067337
  0.8173132868468062  0.6364184301182253  0.1916979158834580
  0.5138581896823888  0.5327785242751272  0.7049053933107334
  0.9881107914181534  0.9766448533917547  0.6219115679391058
  0.1448800193350988  0.3038865913853656  0.7390772102849648
  0.9859570785364715  0.9764638104243409  0.9655187431181368
  0.6647276356851691  0.8456926623374569  0.1414783493562559
  0.8214038547640946  0.6361292886541853  0.8586034786829624
  0.9885732562070001  0.9751873717430891  0.2940470654318365
  0.4957028446127772  0.9755235844814168  0.9623904296652244
 
  0.00000000E+00  0.00000000E+00  0.00000000E+00
  0.00000000E+00  0.00000000E+00  0.00000000E+00
  0.00000000E+00  0.00000000E+00  0.00000000E+00
  0.00000000E+00  0.00000000E+00  0.00000000E+00
  0.00000000E+00  0.00000000E+00  0.00000000E+00
  0.00000000E+00  0.00000000E+00  0.00000000E+00
  0.00000000E+00  0.00000000E+00  0.00000000E+00
  0.00000000E+00  0.00000000E+00  0.00000000E+00
  0.00000000E+00  0.00000000E+00  0.00000000E+00
  0.00000000E+00  0.00000000E+00  0.00000000E+00
  0.00000000E+00  0.00000000E+00  0.00000000E+00
  0.00000000E+00  0.00000000E+00  0.00000000E+00
  0.00000000E+00  0.00000000E+00  0.00000000E+00
  0.00000000E+00  0.00000000E+00  0.00000000E+00
  0.00000000E+00  0.00000000E+00  0.00000000E+00
  0.00000000E+00  0.00000000E+00  0.00000000E+00
  0.00000000E+00  0.00000000E+00  0.00000000E+00
  0.00000000E+00  0.00000000E+00  0.00000000E+00
  0.00000000E+00  0.00000000E+00  0.00000000E+00
  0.00000000E+00  0.00000000E+00  0.00000000E+00
  0.00000000E+00  0.00000000E+00  0.00000000E+00
  0.00000000E+00  0.00000000E+00  0.00000000E+00
  0.00000000E+00  0.00000000E+00  0.00000000E+00
  0.00000000E+00  0.00000000E+00  0.00000000E+00
  0.00000000E+00  0.00000000E+00  0.00000000E+00
  0.00000000E+00  0.00000000E+00  0.00000000E+00
  0.00000000E+00  0.00000000E+00  0.00000000E+00
  0.00000000E+00  0.00000000E+00  0.00000000E+00
  0.00000000E+00  0.00000000E+00  0.00000000E+00
  0.00000000E+00  0.00000000E+00  0.00000000E+00
  0.00000000E+00  0.00000000E+00  0.00000000E+00
  0.00000000E+00  0.00000000E+00  0.00000000E+00
  0.00000000E+00  0.00000000E+00  0.00000000E+00
  0.00000000E+00  0.00000000E+00  0.00000000E+00
  0.00000000E+00  0.00000000E+00  0.00000000E+00
  0.00000000E+00  0.00000000E+00  0.00000000E+00
