CrCoPd2_32sqsfcc                        
   4.00000000000000     
     0.9494491558330101    0.9521987596550836    1.8855687187293870
     0.9505034081851867    0.9599423524863244   -1.8899362503443935
    -0.9490780937032517    0.9551550830131686   -0.0016592353277006
   Cr   Co   Pd
     8     8    16
Direct
 -0.0031449792227911  0.4996080299236838  0.0039467692872366
 -0.0035741583309526  0.7592000314938099  0.7470911924120019
  0.0009173535456084  0.2465277328038606  0.7466955561821542
 -0.0186455417946931 -0.0054993121695076  0.5049948270206548
  0.7504455115999686  0.7538098898248152  0.4922959167374998
  0.2427466994899098 -0.0038478816099958  0.2500116294235143
  0.7564316410256842  0.2560764796523772  0.5005550512498512
  0.7480079801872936 -0.0032325538593292  0.7424543540434971
 -0.0046544335225487  0.4950789460022723  0.5038128785758339
  0.7493324291481119  0.7455156616152134  0.0045665571076145
  0.2696905727102880  0.2549587368568932  0.4948834320424317
  0.5022043010554464  0.4884367547340207  0.4973949475699587
  0.5103294327124994  0.2641786821708509  0.2753310496691995
  0.7416932241815318  0.4991502526370692  0.2631404031990786
  0.5036016875207419  0.2594750972962350  0.7257903650426030
  0.7518399389314115 -0.0013966272754724  0.2590480922311815
 -0.0136589393510298  0.7387262509100960  0.2529635836634784
  0.2433237919468402  0.7503531464280739 -0.0053400280805405
  0.2425296784056296  0.7478540823654428  0.4985971342144010
  0.0000727942667865  0.2478995152136517  0.2622853713095611
  0.2504750796206890  0.4960975435146197  0.2544766396923899
  0.5119191097512159  0.7513812695525868  0.2508651523467672
 -0.0136945100111495 -0.0052385435641713 -0.0001314998349546
  0.2600748567032917  0.2415050306348801  0.0074306742007986
  0.5094842665325057  0.4942351459138210  0.0009281168980386
  0.2419539724606001  0.4878372374057782  0.7475425809788127
  0.5101523864825137  0.7488403246717862  0.7470495530509506
  0.4995446784865501  0.0122646734156303 -0.0001535382623051
  0.7520906760338507  0.2536317134314596  0.0012482918772635
  0.2420919437352939  0.0032983663461680  0.7315857708135622
  0.7590479669905194  0.5100295194534912  0.7409368236109150
  0.5073705887083820  0.0132448042098889  0.4977023517265503
 
  0.00000000E+00  0.00000000E+00  0.00000000E+00
  0.00000000E+00  0.00000000E+00  0.00000000E+00
  0.00000000E+00  0.00000000E+00  0.00000000E+00
  0.00000000E+00  0.00000000E+00  0.00000000E+00
  0.00000000E+00  0.00000000E+00  0.00000000E+00
  0.00000000E+00  0.00000000E+00  0.00000000E+00
  0.00000000E+00  0.00000000E+00  0.00000000E+00
  0.00000000E+00  0.00000000E+00  0.00000000E+00
  0.00000000E+00  0.00000000E+00  0.00000000E+00
  0.00000000E+00  0.00000000E+00  0.00000000E+00
  0.00000000E+00  0.00000000E+00  0.00000000E+00
  0.00000000E+00  0.00000000E+00  0.00000000E+00
  0.00000000E+00  0.00000000E+00  0.00000000E+00
  0.00000000E+00  0.00000000E+00  0.00000000E+00
  0.00000000E+00  0.00000000E+00  0.00000000E+00
  0.00000000E+00  0.00000000E+00  0.00000000E+00
  0.00000000E+00  0.00000000E+00  0.00000000E+00
  0.00000000E+00  0.00000000E+00  0.00000000E+00
  0.00000000E+00  0.00000000E+00  0.00000000E+00
  0.00000000E+00  0.00000000E+00  0.00000000E+00
  0.00000000E+00  0.00000000E+00  0.00000000E+00
  0.00000000E+00  0.00000000E+00  0.00000000E+00
  0.00000000E+00  0.00000000E+00  0.00000000E+00
  0.00000000E+00  0.00000000E+00  0.00000000E+00
  0.00000000E+00  0.00000000E+00  0.00000000E+00
  0.00000000E+00  0.00000000E+00  0.00000000E+00
  0.00000000E+00  0.00000000E+00  0.00000000E+00
  0.00000000E+00  0.00000000E+00  0.00000000E+00
  0.00000000E+00  0.00000000E+00  0.00000000E+00
  0.00000000E+00  0.00000000E+00  0.00000000E+00
  0.00000000E+00  0.00000000E+00  0.00000000E+00
  0.00000000E+00  0.00000000E+00  0.00000000E+00
