Cr2CoPd_32sqsfcc                        
   4.00000000000000     
     0.8109005955930495    0.9874052180112792    1.9095909311129178
     0.8540014006547081    0.9132469537329022   -1.8920436009087875
    -0.8526037447820540    0.9696466705604678    0.0284987258991340
   Cr   Co   Pd
    16     8     8
Direct
  0.0103206247816510  0.7725828163910889  0.2437620010566941
  0.2487535830525807  0.7763660878535011  0.9633098425758709
  0.2600561070165981  0.7689146572327400  0.4647501633546347
  0.0024438755224710  0.2653575593785907  0.2139069368269660
  0.2572817165396148  0.5270645292718157  0.1427264588271297
  0.4865501224357348  0.7379704148380867  0.2979650697139780
  0.0082673802056571  0.0128940672399335  0.9487979531802607
  0.2269597069297211  0.2524581213449778  0.9309133075369835
  0.4665751431446022  0.4747813169383351  0.0706234305111015
  0.2421302047973083  0.5142487617197841  0.7018247197911466
  0.4989232099775849  0.7373997897510183  0.7834818973406760
  0.4870849164289032  0.9715371087700813  0.0765143085894097
  0.7700507847447076  0.2422285549462640  0.0003632723548114
  0.2454459068450035  0.0086631816338059  0.6744017807491939
  0.7594585831731866  0.5008594062152393  0.7580364791441768
  0.5045451067644857  0.9730588997309788  0.6189033484870518
  0.0085007520475890  0.5089453824975079  0.9578780255511162
  0.0132066334731988  0.7682400511671693  0.7317122371474215
  0.9934843501714167  0.2521302101248370  0.7389125630799385
  0.9979854164784073  0.9983765294605235  0.4836046764991805
  0.7621632109849913  0.7470389865136062  0.5227763637539660
  0.2356420594482025  0.0133743424244412  0.1783839651691776
  0.7553280492499047  0.2383763189985380  0.5374415608589210
  0.7503817410589099  0.0015545555535563  0.7791464670632319
  0.0121022210956956  0.5090924138270433  0.4655832558576523
  0.7445819049339825  0.7428790908232158  0.0156003386258128
  0.2392545482351927  0.2676196447188243  0.4303047474391374
  0.5065079622566911  0.4913200391853802  0.5610634554955235
  0.5005483063651370  0.2110735269650627  0.3335924225333110
  0.7542876647803309  0.4876209930908877  0.2527817485536948
  0.5014738535628653  0.2289494050688770  0.8364118052152708
  0.7497043534976601  0.9970232363242617  0.2845253971165501
 
  0.00000000E+00  0.00000000E+00  0.00000000E+00
  0.00000000E+00  0.00000000E+00  0.00000000E+00
  0.00000000E+00  0.00000000E+00  0.00000000E+00
  0.00000000E+00  0.00000000E+00  0.00000000E+00
  0.00000000E+00  0.00000000E+00  0.00000000E+00
  0.00000000E+00  0.00000000E+00  0.00000000E+00
  0.00000000E+00  0.00000000E+00  0.00000000E+00
  0.00000000E+00  0.00000000E+00  0.00000000E+00
  0.00000000E+00  0.00000000E+00  0.00000000E+00
  0.00000000E+00  0.00000000E+00  0.00000000E+00
  0.00000000E+00  0.00000000E+00  0.00000000E+00
  0.00000000E+00  0.00000000E+00  0.00000000E+00
  0.00000000E+00  0.00000000E+00  0.00000000E+00
  0.00000000E+00  0.00000000E+00  0.00000000E+00
  0.00000000E+00  0.00000000E+00  0.00000000E+00
  0.00000000E+00  0.00000000E+00  0.00000000E+00
  0.00000000E+00  0.00000000E+00  0.00000000E+00
  0.00000000E+00  0.00000000E+00  0.00000000E+00
  0.00000000E+00  0.00000000E+00  0.00000000E+00
  0.00000000E+00  0.00000000E+00  0.00000000E+00
  0.00000000E+00  0.00000000E+00  0.00000000E+00
  0.00000000E+00  0.00000000E+00  0.00000000E+00
  0.00000000E+00  0.00000000E+00  0.00000000E+00
  0.00000000E+00  0.00000000E+00  0.00000000E+00
  0.00000000E+00  0.00000000E+00  0.00000000E+00
  0.00000000E+00  0.00000000E+00  0.00000000E+00
  0.00000000E+00  0.00000000E+00  0.00000000E+00
  0.00000000E+00  0.00000000E+00  0.00000000E+00
  0.00000000E+00  0.00000000E+00  0.00000000E+00
  0.00000000E+00  0.00000000E+00  0.00000000E+00
  0.00000000E+00  0.00000000E+00  0.00000000E+00
  0.00000000E+00  0.00000000E+00  0.00000000E+00
