FeCrPd2_32sqsfcc                        
   4.00000000000000     
     0.9637327648039860    0.9602034110471416    1.9115555292762838
     0.9508073482428876    0.9613329382917073   -1.9056662908496129
    -0.9593744992246037    0.9629758220943911   -0.0035327208413713
   Fe   Cr   Pd
     8     8    16
Direct
  0.9967691593014566  0.5021232682461240  0.9967450650889894
  0.0034957049410557  0.7515491987598016  0.7465294393122415
  0.9962967149552543  0.2453311102772205  0.7498879452449243
  0.9829542526602326  0.9953917792739875  0.5039387276087556
  0.7557854126326599  0.7565760479118945  0.5046675657653800
  0.2463962032460912  0.0000801850067212  0.2577023749049928
  0.7589355793387293  0.2527241301333411  0.4885019271826033
  0.7542430081918218  0.0086143709377709  0.7347677938016367
  0.0062444911264016  0.4949368269726350  0.5184786473731799
  0.7495717157960290  0.7461814069301036  0.0042415200639079
  0.2295186306773578  0.2382972300229492  0.5057768481229741
  0.5005156539358655  0.5063641678462275  0.5135627631651635
  0.5032756970227750  0.2451493454768360  0.2617843156651395
  0.7609631617369166  0.5040129841796500  0.2374092089617829
  0.4937716350438251  0.2576886671813547  0.7155260174339448
  0.7508666779286651  0.0002419233145050  0.2468363679307234
  0.9926825939768690  0.7447518422518862  0.2566637643534708
  0.2438306283238303  0.7504894939193127  0.0019878194166930
  0.2481777213769034  0.7497655606561989  0.5033226425706896
  0.9928441355355087  0.2501641894334899  0.2535919473606077
  0.2503114706832744  0.4953048357699701  0.2608234719923831
  0.5120326573594559  0.7518350158842705  0.2516790309371724
  0.9899772347444716  0.9951956048801274 -0.0038517157588540
  0.2529765451137669  0.2409205352376545  0.0121606703139048
  0.5105664255095071  0.4932744456914829  0.0179596786700312
  0.2458202874786361  0.4893048682128517  0.7594544406121513
  0.5134495247380362  0.7533149359503559  0.7524436375488704
  0.4976315723182353  0.0093740457738342  0.0009611656008018
  0.7487860429000456  0.2543873915351082  0.9866165255140209
  0.2425399715110976  0.0005483462849519  0.7363550937573654
  0.7588526425446231  0.5060691402603085  0.7222625942886214
  0.5099168473506022  0.0100371057870534  0.5012127051957607
 
  0.00000000E+00  0.00000000E+00  0.00000000E+00
  0.00000000E+00  0.00000000E+00  0.00000000E+00
  0.00000000E+00  0.00000000E+00  0.00000000E+00
  0.00000000E+00  0.00000000E+00  0.00000000E+00
  0.00000000E+00  0.00000000E+00  0.00000000E+00
  0.00000000E+00  0.00000000E+00  0.00000000E+00
  0.00000000E+00  0.00000000E+00  0.00000000E+00
  0.00000000E+00  0.00000000E+00  0.00000000E+00
  0.00000000E+00  0.00000000E+00  0.00000000E+00
  0.00000000E+00  0.00000000E+00  0.00000000E+00
  0.00000000E+00  0.00000000E+00  0.00000000E+00
  0.00000000E+00  0.00000000E+00  0.00000000E+00
  0.00000000E+00  0.00000000E+00  0.00000000E+00
  0.00000000E+00  0.00000000E+00  0.00000000E+00
  0.00000000E+00  0.00000000E+00  0.00000000E+00
  0.00000000E+00  0.00000000E+00  0.00000000E+00
  0.00000000E+00  0.00000000E+00  0.00000000E+00
  0.00000000E+00  0.00000000E+00  0.00000000E+00
  0.00000000E+00  0.00000000E+00  0.00000000E+00
  0.00000000E+00  0.00000000E+00  0.00000000E+00
  0.00000000E+00  0.00000000E+00  0.00000000E+00
  0.00000000E+00  0.00000000E+00  0.00000000E+00
  0.00000000E+00  0.00000000E+00  0.00000000E+00
  0.00000000E+00  0.00000000E+00  0.00000000E+00
  0.00000000E+00  0.00000000E+00  0.00000000E+00
  0.00000000E+00  0.00000000E+00  0.00000000E+00
  0.00000000E+00  0.00000000E+00  0.00000000E+00
  0.00000000E+00  0.00000000E+00  0.00000000E+00
  0.00000000E+00  0.00000000E+00  0.00000000E+00
  0.00000000E+00  0.00000000E+00  0.00000000E+00
  0.00000000E+00  0.00000000E+00  0.00000000E+00
  0.00000000E+00  0.00000000E+00  0.00000000E+00
