FeNiPd2_32sqsfcc                        
   4.00000000000000     
     0.9446479892439228    0.9445738748439848    1.8704986679790385
     0.9493802354145692    0.9520768039065844   -1.8765710525685910
    -0.9527319118754505    0.9540593981321959   -0.0006553168236075
   Fe   Ni   Pd
     8     8    16
Direct
 -0.0037398830335444  0.4972775968720192  0.0043346511069656
 -0.0049213051889717  0.7528553292387171  0.7506242714015470
  0.0038723655528178  0.2495564496687778  0.7519785973241833
 -0.0122066084983863  0.0005485573666444  0.5051009205195818
  0.7450367433928160  0.7454306582853787  0.4865713074170655
  0.2462558913145317  0.0030099681095309  0.2556009836977441
  0.7511680311074620  0.2589884748883716  0.4909663514412968
  0.7520148040962257 -0.0030053041301745  0.7476483596576823
 -0.0049206448006265  0.4949761870415326  0.5105883274518442
  0.7543399087471925  0.7552126770204851 -0.0109147762309468
  0.2546099145695183  0.2460434014686283  0.4971924382830345
  0.5047102132002783  0.4928823237180473  0.4976478186275460
  0.5073666258793621  0.2580850200215635  0.2681349947004473
  0.7525799380144444  0.4950055341292521  0.2546261946907710
  0.5041575736572833  0.2577881693859389  0.7344043824437317
  0.7528153779239799 -0.0025045511912043  0.2629810756774967
 -0.0145580372429829  0.7427245369120264  0.2564201289583255
  0.2401350383647226  0.7500355077040930 -0.0045445006932502
  0.2439042976719368  0.7500586391861623  0.4964027526282084
 -0.0043956214632594  0.2487479519803333  0.2675400516409526
  0.2485015155753560  0.4962373528531172  0.2534883632306042
  0.5107765243117574  0.7509361008665879  0.2481137877874539
 -0.0098063888322895 -0.0025857669287505  0.0020110013545531
  0.2566134106294534  0.2428385017438928  0.0055913291511634
  0.5107901694454628  0.4943983809950572  0.0051725537796455
  0.2439526977144801  0.4895246412204273  0.7468072105622068
  0.5104584827184032  0.7504009423055858  0.7458096616869424
  0.4975224816950588  0.0100180131893848  0.0049525556442559
  0.7514958248337891  0.2499955214025679 -0.0097411555350426
  0.2418486426163747  0.0020426988717626  0.7326563482586426
  0.7587773243737900  0.5088245569234128  0.7400454507849026
  0.5108446916535654  0.0136519288808301  0.5017885625504462
 
  0.00000000E+00  0.00000000E+00  0.00000000E+00
  0.00000000E+00  0.00000000E+00  0.00000000E+00
  0.00000000E+00  0.00000000E+00  0.00000000E+00
  0.00000000E+00  0.00000000E+00  0.00000000E+00
  0.00000000E+00  0.00000000E+00  0.00000000E+00
  0.00000000E+00  0.00000000E+00  0.00000000E+00
  0.00000000E+00  0.00000000E+00  0.00000000E+00
  0.00000000E+00  0.00000000E+00  0.00000000E+00
  0.00000000E+00  0.00000000E+00  0.00000000E+00
  0.00000000E+00  0.00000000E+00  0.00000000E+00
  0.00000000E+00  0.00000000E+00  0.00000000E+00
  0.00000000E+00  0.00000000E+00  0.00000000E+00
  0.00000000E+00  0.00000000E+00  0.00000000E+00
  0.00000000E+00  0.00000000E+00  0.00000000E+00
  0.00000000E+00  0.00000000E+00  0.00000000E+00
  0.00000000E+00  0.00000000E+00  0.00000000E+00
  0.00000000E+00  0.00000000E+00  0.00000000E+00
  0.00000000E+00  0.00000000E+00  0.00000000E+00
  0.00000000E+00  0.00000000E+00  0.00000000E+00
  0.00000000E+00  0.00000000E+00  0.00000000E+00
  0.00000000E+00  0.00000000E+00  0.00000000E+00
  0.00000000E+00  0.00000000E+00  0.00000000E+00
  0.00000000E+00  0.00000000E+00  0.00000000E+00
  0.00000000E+00  0.00000000E+00  0.00000000E+00
  0.00000000E+00  0.00000000E+00  0.00000000E+00
  0.00000000E+00  0.00000000E+00  0.00000000E+00
  0.00000000E+00  0.00000000E+00  0.00000000E+00
  0.00000000E+00  0.00000000E+00  0.00000000E+00
  0.00000000E+00  0.00000000E+00  0.00000000E+00
  0.00000000E+00  0.00000000E+00  0.00000000E+00
  0.00000000E+00  0.00000000E+00  0.00000000E+00
  0.00000000E+00  0.00000000E+00  0.00000000E+00
