Ternary_NiCrMnSQSfcc                    
   4.00000000000000     
     2.7498297930529794    0.8767771152277392   -0.8767771152277392
    -2.7524987953667468    0.8806991948499403   -0.8806991948499404
    -0.0000000000000000    0.4296853493625589    0.4296853493625589
   Ni   Cr   Mn
     8     8     8
Direct
  0.8327796143891862  0.1661415383818639 -0.0000000000000000
  0.4138881228195233  0.0826302146093331 -0.0000000000000000
  0.7051525589823685  0.5391124585767680  0.5000000000000000
  0.2476844944735699  0.2489043786418558  0.0000000000000000
  0.0010688863040122  0.0018807142840497 -0.0000000000000000
  0.5429704546135360  0.7063462221456952  0.5000000000000000
  0.0404109930939510  0.2080065103724494  0.5000000000000000
  0.1678318295174515  0.8364333934877864  0.0000000000000000
  0.9163464820023506  0.5890576084830143  0.0000000000000000
  0.8766763544726263  0.3752445011223502  0.5000000000000000
  0.6239769738462108  0.1211206171457387  0.5000000000000000
  0.7509926585795077  0.7485995803034257 -0.0000000000000000
  0.4536052686611641  0.2893300816536280  0.5000000000000000
  0.7920237918097118  0.9601472042881813  0.5000000000000000
  0.0859444303961158  0.4125884009025805  0.0000000000000000
  0.3711929770045250  0.8754569453707327  0.5000000000000000
  0.6677812143186415  0.3349649031827314  0.0000000000000000
  0.9595893831449365  0.7969939357630244  0.5000000000000000
  0.4964080900392561  0.4992771967459606  0.0000000000000000
  0.2090165692668064  0.0440804412654494  0.5000000000000000
  0.5793900963402903  0.9071197223159204 -0.0000000000000000
  0.3376936467870571  0.6651817941261163  0.0000000000000000
  0.2977886823436113  0.4630857382796272  0.5000000000000000
  0.1297864267935762  0.6282958985517110  0.5000000000000000
 
  0.00000000E+00  0.00000000E+00  0.00000000E+00
  0.00000000E+00  0.00000000E+00  0.00000000E+00
  0.00000000E+00  0.00000000E+00  0.00000000E+00
  0.00000000E+00  0.00000000E+00  0.00000000E+00
  0.00000000E+00  0.00000000E+00  0.00000000E+00
  0.00000000E+00  0.00000000E+00  0.00000000E+00
  0.00000000E+00  0.00000000E+00  0.00000000E+00
  0.00000000E+00  0.00000000E+00  0.00000000E+00
  0.00000000E+00  0.00000000E+00  0.00000000E+00
  0.00000000E+00  0.00000000E+00  0.00000000E+00
  0.00000000E+00  0.00000000E+00  0.00000000E+00
  0.00000000E+00  0.00000000E+00  0.00000000E+00
  0.00000000E+00  0.00000000E+00  0.00000000E+00
  0.00000000E+00  0.00000000E+00  0.00000000E+00
  0.00000000E+00  0.00000000E+00  0.00000000E+00
  0.00000000E+00  0.00000000E+00  0.00000000E+00
  0.00000000E+00  0.00000000E+00  0.00000000E+00
  0.00000000E+00  0.00000000E+00  0.00000000E+00
  0.00000000E+00  0.00000000E+00  0.00000000E+00
  0.00000000E+00  0.00000000E+00  0.00000000E+00
  0.00000000E+00  0.00000000E+00  0.00000000E+00
  0.00000000E+00  0.00000000E+00  0.00000000E+00
  0.00000000E+00  0.00000000E+00  0.00000000E+00
  0.00000000E+00  0.00000000E+00  0.00000000E+00
