Fe2NiPd_32sqsfcc                        
   4.00000000000000     
     0.9264584978887178    0.9301823000314507    1.8404543632751544
     0.9245044080869068    0.9179017657743825   -1.8333549399803852
    -0.9306792692744899    0.9292223850316327    0.0025558593214714
   Fe   Ni   Pd
    16     8     8
Direct
  0.0057684683049045  0.7538648412716533  0.2599896308113494
  0.2444793600383644  0.7518740112403707  0.0013661452623658
  0.2544438050330201  0.7524351923084688  0.5019508533467073
  0.0012217745496353  0.2541541193521375  0.2494283918012324
  0.2529382771121602  0.5098337208387145  0.2384554575274186
  0.5026824637013908  0.7539657810132439  0.2498282282020252
  0.0038532898873022  0.0043643323603321  0.9888076132050716
  0.2416847568734068  0.2410333652472973  0.0044942805532267
  0.4921174301669727  0.5018797068316262  0.0078141991603153
  0.2447910574194781  0.4991073693687664  0.7640041140705799
  0.5028641237410478  0.7566566079259426  0.7517194723098622
  0.4859510563504950  0.9849246575734677  0.9989258859237748
  0.7555246546322585  0.2466551816440601  0.9859280544554134
  0.2415976799491627  0.9926575427160350  0.7358784753409021
  0.7588134598754034  0.5071201917021857  0.7399077144322630
  0.4999268211910228  0.9937169396759120  0.5043784987954860
  0.0045066797230647  0.5022612212192044  0.9979412520290719
  0.0076155176878618  0.7561236026140284  0.7531039086139577
  0.9949305157940791  0.2446865838742558  0.7671112170062819
  0.9969574487537757  0.9949737462495895  0.5024177504299029
  0.7572325690269106  0.7543097118174356  0.5012288097690394
  0.2402431828897634  0.9931651758335386  0.2426477688300978
  0.7566300188991767  0.2492048313975185  0.5096113773436313
  0.7483532051087797  0.0038129913963070  0.7440570505931910
  0.0080052205501520  0.5007896927127783  0.5039550777135092
  0.7537169879219571  0.7530012728679309  0.9898124766131744
  0.2367508179879978  0.2482777631511833  0.5018471342378942
  0.5008773949336228  0.5103904652651952  0.5084438072344073
  0.4978145959769468  0.2364652687533828  0.2507321887369889
  0.7526319164429294  0.4957674246939991  0.2380045537001503
  0.5029611111827189  0.2455000629041589  0.7549185924065394
  0.7521143382942309  0.0070266241792801  0.2512900195441825
 
  0.00000000E+00  0.00000000E+00  0.00000000E+00
  0.00000000E+00  0.00000000E+00  0.00000000E+00
  0.00000000E+00  0.00000000E+00  0.00000000E+00
  0.00000000E+00  0.00000000E+00  0.00000000E+00
  0.00000000E+00  0.00000000E+00  0.00000000E+00
  0.00000000E+00  0.00000000E+00  0.00000000E+00
  0.00000000E+00  0.00000000E+00  0.00000000E+00
  0.00000000E+00  0.00000000E+00  0.00000000E+00
  0.00000000E+00  0.00000000E+00  0.00000000E+00
  0.00000000E+00  0.00000000E+00  0.00000000E+00
  0.00000000E+00  0.00000000E+00  0.00000000E+00
  0.00000000E+00  0.00000000E+00  0.00000000E+00
  0.00000000E+00  0.00000000E+00  0.00000000E+00
  0.00000000E+00  0.00000000E+00  0.00000000E+00
  0.00000000E+00  0.00000000E+00  0.00000000E+00
  0.00000000E+00  0.00000000E+00  0.00000000E+00
  0.00000000E+00  0.00000000E+00  0.00000000E+00
  0.00000000E+00  0.00000000E+00  0.00000000E+00
  0.00000000E+00  0.00000000E+00  0.00000000E+00
  0.00000000E+00  0.00000000E+00  0.00000000E+00
  0.00000000E+00  0.00000000E+00  0.00000000E+00
  0.00000000E+00  0.00000000E+00  0.00000000E+00
  0.00000000E+00  0.00000000E+00  0.00000000E+00
  0.00000000E+00  0.00000000E+00  0.00000000E+00
  0.00000000E+00  0.00000000E+00  0.00000000E+00
  0.00000000E+00  0.00000000E+00  0.00000000E+00
  0.00000000E+00  0.00000000E+00  0.00000000E+00
  0.00000000E+00  0.00000000E+00  0.00000000E+00
  0.00000000E+00  0.00000000E+00  0.00000000E+00
  0.00000000E+00  0.00000000E+00  0.00000000E+00
  0.00000000E+00  0.00000000E+00  0.00000000E+00
  0.00000000E+00  0.00000000E+00  0.00000000E+00
