FeCr2Co_sqsbcc                          
   3.00000000000000     
     0.9405694646459049   -0.9432408001629733    2.8334876021132800
     0.9391895743210297    2.8204409342369541   -0.9471358320154488
    -2.8235035595467144   -0.9363245337402383   -0.9415862392715791
   Fe   Cr   Co
     8    16     8
Direct
  0.7508150900393981  0.5033349243445506  0.7534750019253426
  0.5036177459744695  0.7540133638245835  0.2516760301207536
  0.2547903855059184  0.7558668498606860  0.5050298888087085
  0.2528805541185138  0.7532153701160949  0.0020703163038304
  0.7473177192623486  0.5004595014805836  0.2473356983519711
  0.0031932498402374  0.2532229141493181  0.7523368704952592
  0.0034348127307456  0.5045186850804773  0.5054917691762824
  0.9952370301798937  0.4978631045853795  0.9941024844327349
  0.2544056046329694  0.5050451095152972  0.7559439951327722
  0.7539938926558094  0.0032068420008343  0.2480155064412354
  0.7460069199724353  0.0033100589598442  0.7496940924515424
  0.4917329886702209  0.2463631271552501  0.2447031799957816
  0.5032027647631582  0.5011248704390742  0.5005484247888387
  0.4997301739550777  0.4986561299177824  0.9940528133971314
  0.5064711976387298  0.0095638607071480  0.0031296222553527
  0.7472522205126039  0.7514546912718595  0.5078133012022930
  0.7457751303093555  0.7478400881673195  0.0034798287619203
  0.2425976429720818  0.9893910144324746  0.7470395900348870
  0.4956463011911957  0.7404043906951959  0.7428864608644533
  0.9936708609065157  0.2460742784630327  0.2453241370852720
  0.9998422020581083  0.7511364509759479  0.7462642449655720
  0.4970145253079086  0.9877986702974549  0.4952625752249685
  0.2567795561687222  0.2539647729747358  0.9980630397235850
  0.7617620040202667  0.2574011232010210  0.0127010377052015
  0.2565185533114365  0.0021306520611101  0.2554296203306083
  0.0038206315219268  0.0060972316688188  0.0065367273359805
  0.7500961088913052  0.2528135624729809  0.5013193418516066
  0.4925983005801597  0.2407195751647739  0.7426707365355859
  0.9980343383431615  0.9960284889051140  0.4994338268470829
  0.2459523033530627  0.2458742470307626  0.4940230019144211
  0.2479374144647317  0.4965498111396051  0.2471004811188315
  0.9978717761475040  0.7445562389408618  0.2470463544202034
 
  0.00000000E+00  0.00000000E+00  0.00000000E+00
  0.00000000E+00  0.00000000E+00  0.00000000E+00
  0.00000000E+00  0.00000000E+00  0.00000000E+00
  0.00000000E+00  0.00000000E+00  0.00000000E+00
  0.00000000E+00  0.00000000E+00  0.00000000E+00
  0.00000000E+00  0.00000000E+00  0.00000000E+00
  0.00000000E+00  0.00000000E+00  0.00000000E+00
  0.00000000E+00  0.00000000E+00  0.00000000E+00
  0.00000000E+00  0.00000000E+00  0.00000000E+00
  0.00000000E+00  0.00000000E+00  0.00000000E+00
  0.00000000E+00  0.00000000E+00  0.00000000E+00
  0.00000000E+00  0.00000000E+00  0.00000000E+00
  0.00000000E+00  0.00000000E+00  0.00000000E+00
  0.00000000E+00  0.00000000E+00  0.00000000E+00
  0.00000000E+00  0.00000000E+00  0.00000000E+00
  0.00000000E+00  0.00000000E+00  0.00000000E+00
  0.00000000E+00  0.00000000E+00  0.00000000E+00
  0.00000000E+00  0.00000000E+00  0.00000000E+00
  0.00000000E+00  0.00000000E+00  0.00000000E+00
  0.00000000E+00  0.00000000E+00  0.00000000E+00
  0.00000000E+00  0.00000000E+00  0.00000000E+00
  0.00000000E+00  0.00000000E+00  0.00000000E+00
  0.00000000E+00  0.00000000E+00  0.00000000E+00
  0.00000000E+00  0.00000000E+00  0.00000000E+00
  0.00000000E+00  0.00000000E+00  0.00000000E+00
  0.00000000E+00  0.00000000E+00  0.00000000E+00
  0.00000000E+00  0.00000000E+00  0.00000000E+00
  0.00000000E+00  0.00000000E+00  0.00000000E+00
  0.00000000E+00  0.00000000E+00  0.00000000E+00
  0.00000000E+00  0.00000000E+00  0.00000000E+00
  0.00000000E+00  0.00000000E+00  0.00000000E+00
  0.00000000E+00  0.00000000E+00  0.00000000E+00
