NiCrMn_bccsqs                           
   3.00000000000000     
     2.2668055300270931   -1.7160743824955591    0.0103126136109981
    -2.2641051294748831   -0.0039947322045212    1.7118629343006129
    -1.6995468706976142   -1.2707853651007155   -1.2771546565942251
   Ni   Cr   Mn
    12    12    12
Direct
  0.8305684035602813  0.1654647697454227  0.2335852199416472
  0.8336184586222514  0.1672656595167654  0.5671962091831750
  0.3285840000560002  0.1576707724767754  0.2015857383745392
  0.8342516375996840  0.6712001482186272  0.2088171892161965
  0.4985810834349398  0.5011608576613035  0.6545110739529559
  0.0012930893925821 -0.0018362511772945  0.6621040146890345
  0.1700263957960022  0.3298948657765273  0.7893777202388016
  0.0032413841695910 -0.0004982293911358  0.9933434798245641
  0.6702524156915444  0.8400093590897382  0.1125193936699811
  0.8355527459442985  0.6673324218098771  0.8769507710704179
 -0.0016213087928498  0.9976452231608933  0.3308328327997668
  0.5044816715270324  0.0071653367996635  0.0132594798204708
  0.1629963933350810  0.3261872909604782  0.1215166962101300
  0.3401560307395045  0.6832438381006222  0.2398383243097460
  0.6602413854661952  0.3355999224600837  0.4376739253829027
 -0.0000278091632582  0.4902052271737539  0.6917361616967410
  0.4926119896359528  0.5093011951013794  0.3047281163817813
  0.6655666138420815  0.3455761885275648  0.1009815827938366
  0.3293552404007962  0.1760182587584845  0.5255528242392946
  0.1582837546910627  0.3315176209398734  0.4515159972901840
  0.3349258471199437  0.1624823920452601  0.8595533904556285
  0.1764779064029363  0.8265526053025293  0.7596905900868129
  0.1720041750536957  0.8289615802941191  0.4234179767402092
  0.1565100957072335  0.8164953383849425  0.0888206918538064
  0.6667758600155843  0.8401419456380813  0.4513741087095717
 -0.0050398991112222  0.4915911451108438  0.0157930105121323
  0.3366540596688677  0.6591061910354250  0.9244745177005081
  0.6657870889084287  0.3314765660990836  0.7763258736246129
  0.5067500169075303  0.0073001340881520  0.3560116707024762
  0.9887013298553482  0.4915911098084112  0.3488833717086260
  0.5027105112858412  0.4951156336552003  0.9908378738044052
  0.5114390604133907  0.0088776353677698  0.6873169344948048
  0.8455617367686403  0.1801232038290775  0.9017126701027306
  0.3301182755110215  0.6601944631142889  0.5771898969714018
  0.6659098869485155  0.8358379406220536  0.7785013753915060
  0.8267004725954645  0.6640276398953560  0.5424692960546156
 
  0.00000000E+00  0.00000000E+00  0.00000000E+00
  0.00000000E+00  0.00000000E+00  0.00000000E+00
  0.00000000E+00  0.00000000E+00  0.00000000E+00
  0.00000000E+00  0.00000000E+00  0.00000000E+00
  0.00000000E+00  0.00000000E+00  0.00000000E+00
  0.00000000E+00  0.00000000E+00  0.00000000E+00
  0.00000000E+00  0.00000000E+00  0.00000000E+00
  0.00000000E+00  0.00000000E+00  0.00000000E+00
  0.00000000E+00  0.00000000E+00  0.00000000E+00
  0.00000000E+00  0.00000000E+00  0.00000000E+00
  0.00000000E+00  0.00000000E+00  0.00000000E+00
  0.00000000E+00  0.00000000E+00  0.00000000E+00
  0.00000000E+00  0.00000000E+00  0.00000000E+00
  0.00000000E+00  0.00000000E+00  0.00000000E+00
  0.00000000E+00  0.00000000E+00  0.00000000E+00
  0.00000000E+00  0.00000000E+00  0.00000000E+00
  0.00000000E+00  0.00000000E+00  0.00000000E+00
  0.00000000E+00  0.00000000E+00  0.00000000E+00
  0.00000000E+00  0.00000000E+00  0.00000000E+00
  0.00000000E+00  0.00000000E+00  0.00000000E+00
  0.00000000E+00  0.00000000E+00  0.00000000E+00
  0.00000000E+00  0.00000000E+00  0.00000000E+00
  0.00000000E+00  0.00000000E+00  0.00000000E+00
  0.00000000E+00  0.00000000E+00  0.00000000E+00
  0.00000000E+00  0.00000000E+00  0.00000000E+00
  0.00000000E+00  0.00000000E+00  0.00000000E+00
  0.00000000E+00  0.00000000E+00  0.00000000E+00
  0.00000000E+00  0.00000000E+00  0.00000000E+00
  0.00000000E+00  0.00000000E+00  0.00000000E+00
  0.00000000E+00  0.00000000E+00  0.00000000E+00
  0.00000000E+00  0.00000000E+00  0.00000000E+00
  0.00000000E+00  0.00000000E+00  0.00000000E+00
  0.00000000E+00  0.00000000E+00  0.00000000E+00
  0.00000000E+00  0.00000000E+00  0.00000000E+00
  0.00000000E+00  0.00000000E+00  0.00000000E+00
  0.00000000E+00  0.00000000E+00  0.00000000E+00
