Ternary_FeCrCoSQSfcc                    
   4.00000000000000     
     2.6684934567163197    0.8836196358192649   -0.8836196358192649
    -2.6670092750816270    0.8814145143744022   -0.8814145143744022
    -0.0000000000000000    0.4366451905216452    0.4366451905216452
   Fe   Cr   Co
     8     8     8
Direct
  0.8336126185111078  0.1669053775741159  0.0000000000000000
  0.4120443556618982  0.0833932717337745 -0.0000000000000000
  0.7073120735826592  0.5381651036680248  0.5000000000000000
  0.2485680266017167  0.2491029031976778 -0.0000000000000000
  0.9991954495246400  0.9960747283751453  0.0000000000000000
  0.5430529267649576  0.7099363968677677  0.5000000000000000
  0.0374522499427864  0.2089951907666745  0.5000000000000000
  0.1668485476412712  0.8366387207132455  0.0000000000000000
  0.9198343521912624  0.5859926194276811  0.0000000000000000
  0.8692681548180348  0.3685960613818289  0.5000000000000000
  0.6194617463926866  0.1210759113749806  0.5000000000000000
  0.7536039251377724  0.7463303687739464 -0.0000000000000000
  0.4613109941988490  0.2931723977051462  0.5000000000000000
  0.7901739089320086  0.9635825681290582  0.5000000000000000
  0.0880907009714561  0.4218540017185177 -0.0000000000000000
  0.3766513243490277  0.8717003109835622  0.5000000000000000
  0.6658155347490247  0.3315441483080837  0.0000000000000000
  0.9582772122155934  0.7912668098749991  0.5000000000000000
  0.5008546831126269  0.5019400897617787 -0.0000000000000000
  0.2079201573143878  0.0431303654885521  0.5000000000000000
  0.5849072032823318  0.9193124290576381  0.0000000000000000
  0.3332765710018430  0.6652252010591446 -0.0000000000000000
  0.2948736055785681  0.4590895614270197  0.5000000000000000
  0.1275936775234833  0.6269754626316273  0.5000000000000000
 
  0.00000000E+00  0.00000000E+00  0.00000000E+00
  0.00000000E+00  0.00000000E+00  0.00000000E+00
  0.00000000E+00  0.00000000E+00  0.00000000E+00
  0.00000000E+00  0.00000000E+00  0.00000000E+00
  0.00000000E+00  0.00000000E+00  0.00000000E+00
  0.00000000E+00  0.00000000E+00  0.00000000E+00
  0.00000000E+00  0.00000000E+00  0.00000000E+00
  0.00000000E+00  0.00000000E+00  0.00000000E+00
  0.00000000E+00  0.00000000E+00  0.00000000E+00
  0.00000000E+00  0.00000000E+00  0.00000000E+00
  0.00000000E+00  0.00000000E+00  0.00000000E+00
  0.00000000E+00  0.00000000E+00  0.00000000E+00
  0.00000000E+00  0.00000000E+00  0.00000000E+00
  0.00000000E+00  0.00000000E+00  0.00000000E+00
  0.00000000E+00  0.00000000E+00  0.00000000E+00
  0.00000000E+00  0.00000000E+00  0.00000000E+00
  0.00000000E+00  0.00000000E+00  0.00000000E+00
  0.00000000E+00  0.00000000E+00  0.00000000E+00
  0.00000000E+00  0.00000000E+00  0.00000000E+00
  0.00000000E+00  0.00000000E+00  0.00000000E+00
  0.00000000E+00  0.00000000E+00  0.00000000E+00
  0.00000000E+00  0.00000000E+00  0.00000000E+00
  0.00000000E+00  0.00000000E+00  0.00000000E+00
  0.00000000E+00  0.00000000E+00  0.00000000E+00
