FeCrCo2_sqsbcc                          
   3.00000000000000     
     0.9505589642044866   -0.9160837716468244    2.7804342219161127
     0.9468957211520698    2.7659048911324189   -0.9202774412599758
    -2.8649835599327469   -0.9145375599936147   -0.9219179369011751
   Fe   Cr   Co
     8     8    16
Direct
  0.7490416085625884  0.4777394754073115  0.7353247192702121
  0.4794662702818604  0.7200827433362517  0.2252733142775312
  0.2261216092825268  0.7292321710180112  0.4841532247005441
  0.2141672063531392  0.7026338750457185  0.9575550345698840
  0.7090923838196905  0.4765117251996845  0.2144187173223070
  0.9815740504832187  0.2208601918169884  0.7305659330855390
  0.9824811357655623  0.5054196062107386  0.4991720121654051
  0.0020110732248194  0.4846860766705914  0.0035403785891753
  0.2340697654292757  0.9645693399514863  0.2236045524835617
  0.1459053647912416  0.1362908975446652  0.1475202431412518
  0.7137433670500102  0.1953970589979554  0.4491853851311775
  0.4714056051875937  0.2236802231179937  0.7106857322607220
  0.9582028724753060  0.9731268902405960  0.4438989051114883
  0.3066342491724083  0.3071698335513219  0.5399020080561693
  0.3239417326966020  0.5571710112419338  0.3281121214409746
  0.9926433944692966  0.7451823211421965  0.2405631673604683
  0.1439927155074071  0.3981946013617586  0.6429429387779008
  0.6374903504282189  0.8881982548460746  0.1307184323934539
  0.8176255593686428  0.0497835894463965  0.8268188218026929
  0.5566425459484039  0.3249933988496304  0.3281139509738629
  0.6446123972853779  0.6422022750039869  0.6475520114821898
  0.4657039157634018  0.4716608164218117  0.9480976684885940
  0.4813996032762459  0.0087494480569184  0.0030907280585306
  0.7574609823887709  0.7579813046905409  0.5053935706231431
  0.8011954535531332  0.7932090783362202  0.0297360566269359
  0.2142952037310451  0.9819787998194131  0.7131872666088120
  0.4751743566357833  0.7367763419279619  0.7419197434168088
  0.9693135702722655  0.2300963352336648  0.2372162933063771
  0.0557250224175448  0.8209962293893274  0.8162471868049486
  0.5087280254997171  0.9901685301479249  0.5093062797564774
  0.2560232802933092  0.2536163204983102  0.0030266468799071
  0.7241153285856300  0.2316412354765994  0.9831569550329536
 
  0.00000000E+00  0.00000000E+00  0.00000000E+00
  0.00000000E+00  0.00000000E+00  0.00000000E+00
  0.00000000E+00  0.00000000E+00  0.00000000E+00
  0.00000000E+00  0.00000000E+00  0.00000000E+00
  0.00000000E+00  0.00000000E+00  0.00000000E+00
  0.00000000E+00  0.00000000E+00  0.00000000E+00
  0.00000000E+00  0.00000000E+00  0.00000000E+00
  0.00000000E+00  0.00000000E+00  0.00000000E+00
  0.00000000E+00  0.00000000E+00  0.00000000E+00
  0.00000000E+00  0.00000000E+00  0.00000000E+00
  0.00000000E+00  0.00000000E+00  0.00000000E+00
  0.00000000E+00  0.00000000E+00  0.00000000E+00
  0.00000000E+00  0.00000000E+00  0.00000000E+00
  0.00000000E+00  0.00000000E+00  0.00000000E+00
  0.00000000E+00  0.00000000E+00  0.00000000E+00
  0.00000000E+00  0.00000000E+00  0.00000000E+00
  0.00000000E+00  0.00000000E+00  0.00000000E+00
  0.00000000E+00  0.00000000E+00  0.00000000E+00
  0.00000000E+00  0.00000000E+00  0.00000000E+00
  0.00000000E+00  0.00000000E+00  0.00000000E+00
  0.00000000E+00  0.00000000E+00  0.00000000E+00
  0.00000000E+00  0.00000000E+00  0.00000000E+00
  0.00000000E+00  0.00000000E+00  0.00000000E+00
  0.00000000E+00  0.00000000E+00  0.00000000E+00
  0.00000000E+00  0.00000000E+00  0.00000000E+00
  0.00000000E+00  0.00000000E+00  0.00000000E+00
  0.00000000E+00  0.00000000E+00  0.00000000E+00
  0.00000000E+00  0.00000000E+00  0.00000000E+00
  0.00000000E+00  0.00000000E+00  0.00000000E+00
  0.00000000E+00  0.00000000E+00  0.00000000E+00
  0.00000000E+00  0.00000000E+00  0.00000000E+00
  0.00000000E+00  0.00000000E+00  0.00000000E+00
