Ni2CoPd_32sqsfcc                        
   4.00000000000000     
     0.9124130095223955    0.9096219043450187    1.8056703420949252
     0.9123469510055060    0.9113378376571767   -1.8064891148926812
    -0.9191153158861523    0.9172049388903689   -0.0004443630728007
   Ni   Co   Pd
    16     8     8
Direct
  0.0070571243799645  0.7563799532881318  0.2479977623614056
  0.2450914517361446  0.7501818852933894 -0.0011347976222473
  0.2521502864037478  0.7556958448089308  0.4993020191809902
 -0.0024791296003846  0.2515676676904552  0.2360244016669340
  0.2508204454234600  0.5061466664181454  0.2370760476627539
  0.4918597207867528  0.7528894606876785  0.2455026448763374
  0.0071765199526990  0.0021666871153667 -0.0027635106447428
  0.2419005505362020  0.2482127594264928  0.0017447224690158
  0.4920345475204506  0.5021560078714326  0.0026144423099279
  0.2510573994593926  0.5039566902376019  0.7681698110804427
  0.4945464522921120  0.7565037981687814  0.7499880547342049
  0.4920030228631128 -0.0117440879601748 -0.0056064343444754
  0.7604635912112990  0.2533488869860490 -0.0104260335243963
  0.2444201294413871 -0.0086169715751102  0.7537554070016838
  0.7598001472424749  0.5015076422398240  0.7486562327165550
  0.4944270696471286 -0.0096710509185573  0.5072865155408811
  0.0069813511925739  0.5007663403112378 -0.0035034964950630
  0.0039230089183387  0.7540564389676051  0.7461135928713344
 -0.0074770492517717  0.2409680154028868  0.7596668915291958
 -0.0030686505618620 -0.0095468279825131  0.5094930427800637
  0.7615225352472064  0.7580777760316115  0.5010500299817127
  0.2424976465706877 -0.0087860166092962  0.2490484565764271
  0.7589903697014413  0.2474926363666353  0.5141848971239510
  0.7505205001709763  0.0060430111577856  0.7444479780927864
  0.0112702827351631  0.4995358788679536  0.5054056364737515
  0.7488852267958541  0.7520258439051597 -0.0124321454928079
  0.2356826658743727  0.2467915915855636  0.5006615652259954
  0.5005141454106705  0.5136881565707211  0.5054980107969447
  0.4989245356184066  0.2366631391220650  0.2501443482208525
  0.7560559690020678  0.4991067840400603  0.2456568654400619
  0.5040377458503376  0.2467155050429727  0.7548282955156946
  0.7484103874295934  0.0057198874411137  0.2515487458938297
 
  0.00000000E+00  0.00000000E+00  0.00000000E+00
  0.00000000E+00  0.00000000E+00  0.00000000E+00
  0.00000000E+00  0.00000000E+00  0.00000000E+00
  0.00000000E+00  0.00000000E+00  0.00000000E+00
  0.00000000E+00  0.00000000E+00  0.00000000E+00
  0.00000000E+00  0.00000000E+00  0.00000000E+00
  0.00000000E+00  0.00000000E+00  0.00000000E+00
  0.00000000E+00  0.00000000E+00  0.00000000E+00
  0.00000000E+00  0.00000000E+00  0.00000000E+00
  0.00000000E+00  0.00000000E+00  0.00000000E+00
  0.00000000E+00  0.00000000E+00  0.00000000E+00
  0.00000000E+00  0.00000000E+00  0.00000000E+00
  0.00000000E+00  0.00000000E+00  0.00000000E+00
  0.00000000E+00  0.00000000E+00  0.00000000E+00
  0.00000000E+00  0.00000000E+00  0.00000000E+00
  0.00000000E+00  0.00000000E+00  0.00000000E+00
  0.00000000E+00  0.00000000E+00  0.00000000E+00
  0.00000000E+00  0.00000000E+00  0.00000000E+00
  0.00000000E+00  0.00000000E+00  0.00000000E+00
  0.00000000E+00  0.00000000E+00  0.00000000E+00
  0.00000000E+00  0.00000000E+00  0.00000000E+00
  0.00000000E+00  0.00000000E+00  0.00000000E+00
  0.00000000E+00  0.00000000E+00  0.00000000E+00
  0.00000000E+00  0.00000000E+00  0.00000000E+00
  0.00000000E+00  0.00000000E+00  0.00000000E+00
  0.00000000E+00  0.00000000E+00  0.00000000E+00
  0.00000000E+00  0.00000000E+00  0.00000000E+00
  0.00000000E+00  0.00000000E+00  0.00000000E+00
  0.00000000E+00  0.00000000E+00  0.00000000E+00
  0.00000000E+00  0.00000000E+00  0.00000000E+00
  0.00000000E+00  0.00000000E+00  0.00000000E+00
  0.00000000E+00  0.00000000E+00  0.00000000E+00
