FeNi2Mn_32sqsfcc                        
   4.00000000000000     
     0.8992545785794523    0.8979902185042919    1.7798757865016424
     0.8945950283207714    0.8953075953251683   -1.7762019339040216
    -0.8934315815735369    0.8931265894547555   -0.0005045440716150
   Fe   Ni   Mn
     8    16     8
Direct
  0.0035292232885728  0.5012903972484052  0.9871039876339982
  0.0070022445193393  0.7557882560574516  0.7471209381170717
 -0.0075043925075730  0.2427305835425195  0.7657852739491552
 -0.0053683012994388  0.9970634120675104  0.5028718092283732
  0.7567945862416273  0.7516024439524170  0.4974674157204840
  0.2467970308974524 -0.0067142522028310  0.2386972325278211
  0.7493913544968666  0.2500494628306861  0.5022453892736323
  0.7410001314089764  0.0000607525894879  0.7448921853207591
  0.0032534828479966  0.7515352772569862  0.2491223242118030
  0.2517302633569916  0.7506674990489369  0.9961958890901607
  0.2509615526846184  0.7493346297069037  0.5000582928008446
  0.9959618264402187  0.2482699159045968  0.2561114193067053
  0.2530655321497783  0.5018959306375338  0.2386628065524796
  0.5028175755611234  0.7502284786281445  0.2499823706327730
 -0.0002147515871792 -0.0010445518417151  0.0012179891312679
  0.2452289855065313  0.2474042879630022  0.9949379417695414
  0.5001820920505693  0.4980932040667285  0.9982927642983026
  0.2527202306708262  0.4987249697166317  0.7480199747041222
  0.4999849580342171  0.7516370909601710  0.7499957936186665
  0.4973875608356743  0.9982673153440202  0.0034716576980863
  0.7488355271826479  0.2530683481993777  0.0096498202951799
  0.2486742032100160 -0.0004328496792339  0.7433362921480802
  0.7534754509212903  0.4987337366519554  0.7497993092186052
  0.4964739723349966  0.0002816887425901  0.5047292062043088
  0.0073539924923504  0.5004957801549104  0.4908748133215348
  0.7468260304784784  0.7433401548822216 -0.0034338052375039
  0.2439591561156285  0.2546425667803172  0.4938553835695021
  0.5122461009994883  0.5128428862823043  0.4971832497944603
  0.4928622982423493  0.2474707523558764  0.2700859610185381
  0.7594614267528571  0.5078898747785151  0.2511083052397173
  0.4998699660231811  0.2450880071014486  0.7758101381561299
  0.7452406896495433  0.9996939502721370  0.2447478706853920
 
  0.00000000E+00  0.00000000E+00  0.00000000E+00
  0.00000000E+00  0.00000000E+00  0.00000000E+00
  0.00000000E+00  0.00000000E+00  0.00000000E+00
  0.00000000E+00  0.00000000E+00  0.00000000E+00
  0.00000000E+00  0.00000000E+00  0.00000000E+00
  0.00000000E+00  0.00000000E+00  0.00000000E+00
  0.00000000E+00  0.00000000E+00  0.00000000E+00
  0.00000000E+00  0.00000000E+00  0.00000000E+00
  0.00000000E+00  0.00000000E+00  0.00000000E+00
  0.00000000E+00  0.00000000E+00  0.00000000E+00
  0.00000000E+00  0.00000000E+00  0.00000000E+00
  0.00000000E+00  0.00000000E+00  0.00000000E+00
  0.00000000E+00  0.00000000E+00  0.00000000E+00
  0.00000000E+00  0.00000000E+00  0.00000000E+00
  0.00000000E+00  0.00000000E+00  0.00000000E+00
  0.00000000E+00  0.00000000E+00  0.00000000E+00
  0.00000000E+00  0.00000000E+00  0.00000000E+00
  0.00000000E+00  0.00000000E+00  0.00000000E+00
  0.00000000E+00  0.00000000E+00  0.00000000E+00
  0.00000000E+00  0.00000000E+00  0.00000000E+00
  0.00000000E+00  0.00000000E+00  0.00000000E+00
  0.00000000E+00  0.00000000E+00  0.00000000E+00
  0.00000000E+00  0.00000000E+00  0.00000000E+00
  0.00000000E+00  0.00000000E+00  0.00000000E+00
  0.00000000E+00  0.00000000E+00  0.00000000E+00
  0.00000000E+00  0.00000000E+00  0.00000000E+00
  0.00000000E+00  0.00000000E+00  0.00000000E+00
  0.00000000E+00  0.00000000E+00  0.00000000E+00
  0.00000000E+00  0.00000000E+00  0.00000000E+00
  0.00000000E+00  0.00000000E+00  0.00000000E+00
  0.00000000E+00  0.00000000E+00  0.00000000E+00
  0.00000000E+00  0.00000000E+00  0.00000000E+00
