Cr2CoMn_32sqsfcc                        
   4.00000000000000     
     0.9412973274079400    0.7353838393380017    1.9294124238796679
     0.9931019951965381    0.7424979985704702   -1.9585165597244065
    -0.9706893246335004    0.7413604961365862    0.0109990579587224
   Cr   Co   Mn
    16     8     8
Direct
  0.9741778551599932  0.7309282955103065  0.2490019824301518
  0.2441309596138156  0.7524637604635190  1.0011260618748969
  0.2414199274493081  0.7535129239534155  0.5064320107093480
  0.0040885976395838  0.2614394838956566  0.2898373601094701
  0.2589366604906427  0.5068126916923640  0.2872876583094160
  0.5030695795090714  0.7492037380746599  0.2475519214526253
  0.0022459575959080  0.0318239072398637  0.9779034490433892
  0.2624370599603517  0.2627275827166421  0.0394062134930690
  0.5151484089088116  0.5040261137101276  0.0152253092890408
  0.2522755887906080  0.5034707356196372  0.7814226873339024
  0.5014436302198654  0.7469014255931273  0.7428272356343383
  0.4918373918280370  0.9969180565273895  0.9812491259399465
  0.7603790407238392  0.2373745292481303  0.9623243913513301
  0.2567567054402204  0.0298945446758578  0.7354196203861239
  0.7715348263796091  0.5114811403021804  0.7430162194485224
  0.4872204725685641  0.9960747327907231  0.4807661083016391
  0.0101569442423057  0.4960153065102325  0.0612135591761302
  0.0124308313351325  0.7870134079981548  0.7673856477193085
  0.9985775542391107  0.2481360505758549  0.7715189841735038
  0.9864697247936517  0.9879657237295792  0.4659002595679366
  0.7462934500001785  0.7228063782952738  0.4601116070684930
  0.2157830597011996  0.9812970122805997  0.2230004551900336
  0.7440829232301261  0.2405162576261219  0.4698927094021608
  0.7403626310097210  0.9836537367955671  0.6856351035340658
  0.9976307478184523  0.5071676254635673  0.5620523740693103
  0.7624788002608124  0.7625561546798852  0.9739216489588387
  0.2515942944090140  0.2516217624466891  0.5373986604048563
  0.5089891760031716  0.4949209534553698  0.5208793002025237
  0.4860867323357175  0.2354464783969927  0.2596275252180094
  0.7465382526723072  0.4677271865785616  0.2340403842194011
  0.5231213908444062  0.2616642193614275  0.7631923215174762
  0.7423008248264773  0.9964380837925283  0.2034321044707477
 
  0.00000000E+00  0.00000000E+00  0.00000000E+00
  0.00000000E+00  0.00000000E+00  0.00000000E+00
  0.00000000E+00  0.00000000E+00  0.00000000E+00
  0.00000000E+00  0.00000000E+00  0.00000000E+00
  0.00000000E+00  0.00000000E+00  0.00000000E+00
  0.00000000E+00  0.00000000E+00  0.00000000E+00
  0.00000000E+00  0.00000000E+00  0.00000000E+00
  0.00000000E+00  0.00000000E+00  0.00000000E+00
  0.00000000E+00  0.00000000E+00  0.00000000E+00
  0.00000000E+00  0.00000000E+00  0.00000000E+00
  0.00000000E+00  0.00000000E+00  0.00000000E+00
  0.00000000E+00  0.00000000E+00  0.00000000E+00
  0.00000000E+00  0.00000000E+00  0.00000000E+00
  0.00000000E+00  0.00000000E+00  0.00000000E+00
  0.00000000E+00  0.00000000E+00  0.00000000E+00
  0.00000000E+00  0.00000000E+00  0.00000000E+00
  0.00000000E+00  0.00000000E+00  0.00000000E+00
  0.00000000E+00  0.00000000E+00  0.00000000E+00
  0.00000000E+00  0.00000000E+00  0.00000000E+00
  0.00000000E+00  0.00000000E+00  0.00000000E+00
  0.00000000E+00  0.00000000E+00  0.00000000E+00
  0.00000000E+00  0.00000000E+00  0.00000000E+00
  0.00000000E+00  0.00000000E+00  0.00000000E+00
  0.00000000E+00  0.00000000E+00  0.00000000E+00
  0.00000000E+00  0.00000000E+00  0.00000000E+00
  0.00000000E+00  0.00000000E+00  0.00000000E+00
  0.00000000E+00  0.00000000E+00  0.00000000E+00
  0.00000000E+00  0.00000000E+00  0.00000000E+00
  0.00000000E+00  0.00000000E+00  0.00000000E+00
  0.00000000E+00  0.00000000E+00  0.00000000E+00
  0.00000000E+00  0.00000000E+00  0.00000000E+00
  0.00000000E+00  0.00000000E+00  0.00000000E+00
