Ni2CrPd_sqsbcc                          
   3.00000000000000     
     1.2121604112487623   -0.8546626689994004    2.6025247552799242
     1.2132743252833640    2.5932868583642059   -0.8543443685816891
    -3.6466498065305673   -0.8662244218362771   -0.8760440713362798
   Ni   Cr   Pd
    16     8     8
Direct
  0.2689133876687104  0.5224425598798745  0.7702235831717328
  0.7407544013697489  0.9955367554284094  0.2401078650329079
  0.7463090505306432  0.0010403256821825  0.7465500807724944
  0.5078456070370362  0.2555041103109114  0.2504239119839707
  0.5021976799653964  0.5031318649337512  0.4968936699847318
  0.4920703862387780  0.4980593541263517  0.9993135356789441
  0.4978527560313199  0.9996722880932913  0.9986476856119598
  0.7521092108721192  0.7484462374861530  0.5046011909448173
  0.7463870612288657  0.7566705239344574  0.0030285356254953
  0.2460402540325162  0.9942017752721206  0.7514092219234799
  0.4970073532959765  0.7569689328912544  0.7516775759557048
  0.9907742129331114  0.2524363259191161  0.2492026087314532
  0.0061896433778890  0.7515091864685038  0.7494668846875355
  0.5113639751538868  0.0026578168590210  0.5024592642147068
  0.2528605040425738  0.2471968178853601  0.9966251818229588
  0.7411359832934420  0.2358659204111136 -0.0018595136573639
  0.7463461462128951  0.4953013698996283  0.7453093810790438
  0.4840631376532594  0.7312897979223695  0.2275315971167026
  0.2574062348987908  0.7484161560513996  0.5103499098534933
  0.2736197397613859  0.7659585732835383  0.0089611286243514
  0.7339677944774536  0.4848316519839120  0.2443386794812780
  0.0156745245500438  0.2639514162265967  0.7739401167044553
  0.0031625784782371  0.5061356255805152  0.4971634107212439
 -0.0162034525493293  0.4823627375001915  0.9784718949665324
  0.2509776918218453 -0.0056720782571139  0.2447345790075348
  0.9879989336311311  0.9906026631000387  0.9883366740538477
  0.7718847296684332  0.2610270489265525  0.5132686032118294
  0.5034976264251653  0.2467344749804043  0.7540395645430962
  0.9858544282608482  0.9975230996199138  0.5000502935528328
  0.2536535593303424  0.2670034158640263  0.5057415707154466
  0.2502310152122728  0.5069419846988610  0.2487523540935030
 -0.0019461549047977  0.7362512670372680  0.2502389597892938
 
  0.00000000E+00  0.00000000E+00  0.00000000E+00
  0.00000000E+00  0.00000000E+00  0.00000000E+00
  0.00000000E+00  0.00000000E+00  0.00000000E+00
  0.00000000E+00  0.00000000E+00  0.00000000E+00
  0.00000000E+00  0.00000000E+00  0.00000000E+00
  0.00000000E+00  0.00000000E+00  0.00000000E+00
  0.00000000E+00  0.00000000E+00  0.00000000E+00
  0.00000000E+00  0.00000000E+00  0.00000000E+00
  0.00000000E+00  0.00000000E+00  0.00000000E+00
  0.00000000E+00  0.00000000E+00  0.00000000E+00
  0.00000000E+00  0.00000000E+00  0.00000000E+00
  0.00000000E+00  0.00000000E+00  0.00000000E+00
  0.00000000E+00  0.00000000E+00  0.00000000E+00
  0.00000000E+00  0.00000000E+00  0.00000000E+00
  0.00000000E+00  0.00000000E+00  0.00000000E+00
  0.00000000E+00  0.00000000E+00  0.00000000E+00
  0.00000000E+00  0.00000000E+00  0.00000000E+00
  0.00000000E+00  0.00000000E+00  0.00000000E+00
  0.00000000E+00  0.00000000E+00  0.00000000E+00
  0.00000000E+00  0.00000000E+00  0.00000000E+00
  0.00000000E+00  0.00000000E+00  0.00000000E+00
  0.00000000E+00  0.00000000E+00  0.00000000E+00
  0.00000000E+00  0.00000000E+00  0.00000000E+00
  0.00000000E+00  0.00000000E+00  0.00000000E+00
  0.00000000E+00  0.00000000E+00  0.00000000E+00
  0.00000000E+00  0.00000000E+00  0.00000000E+00
  0.00000000E+00  0.00000000E+00  0.00000000E+00
  0.00000000E+00  0.00000000E+00  0.00000000E+00
  0.00000000E+00  0.00000000E+00  0.00000000E+00
  0.00000000E+00  0.00000000E+00  0.00000000E+00
  0.00000000E+00  0.00000000E+00  0.00000000E+00
  0.00000000E+00  0.00000000E+00  0.00000000E+00
