NiCrCo2_32sqsfcc                        
   4.00000000000000     
     0.8764187132497367    0.8804281405830877    1.7570202708215306
     0.8804481728754872    0.8859889558146281   -1.7618273184701336
    -0.8790514001843012    0.8838316280069776   -0.0003813974085019
   Ni   Cr   Co
     8     8    16
Direct
  0.9991904477439455  0.4987982409548706  0.0017370910740308
  0.0022744406921642  0.7513970121436745  0.7468165617759719
  0.0009367600654561  0.2495552814692445  0.7545050366727003
  0.0005105158875118  0.0022440859038836  0.5017732240020978
  0.7505647443808992  0.7502104257647749  0.4909472880992645
  0.2489461468555577  0.9992378303475385  0.2515761801685434
  0.7516763281469814  0.2484794666683119  0.5044556890093667
  0.7478225293181062  0.9965739338160932  0.7561877985713278
  0.0018485453824821  0.4991912317175148  0.5031793771257661
  0.7467287561610392  0.7403802793882558  0.9859766246609875
  0.2501478576832338  0.2541214164634650  0.5005695883507223
  0.5015704268516755  0.5117085575848804  0.5023494248263163
  0.4979852243663618  0.2431558353147655  0.2542545028682287
  0.7422080695196029  0.4918335496895207  0.2495749216300346
  0.5062756377373594  0.2545189856500628  0.7518126513963862
  0.7478805972491473  0.0074248932754142  0.2515014688255476
  0.0025951222425473  0.7496465694430571  0.2468387876471662
  0.2525111145978231  0.7509388513379822  0.9952165315940062
  0.2518904701933909  0.7499979754828857  0.4953274674996616
  0.0034776639806389  0.2517984508004640  0.2525849453977782
  0.2522499456492038  0.4991607422757912  0.2472668386874582
  0.5024545653762678  0.7513806655633328  0.2444670554008322
  0.9970823250535485  0.9962087447025458  0.0069190384909282
  0.2496863588839617  0.2512719632637681  0.0000920724130856
  0.4964818099483642  0.5001323777837799  0.9987694423735187
  0.2519496935174140  0.4984679243285827  0.7482471307611608
  0.4990818801020683  0.7490980215421289  0.7490280595480631
  0.4989474245763088  0.0020153998299673  0.0000729991217703
  0.7460696838119452  0.2512707479680238  0.0055115412230854
  0.2506162934015754  0.0019504354419827  0.7514789896651789
  0.7488573613532410  0.5005974948650480  0.7492599450103455
  0.4994812592701909  0.9972326092184085  0.5017017261086691
 
  0.00000000E+00  0.00000000E+00  0.00000000E+00
  0.00000000E+00  0.00000000E+00  0.00000000E+00
  0.00000000E+00  0.00000000E+00  0.00000000E+00
  0.00000000E+00  0.00000000E+00  0.00000000E+00
  0.00000000E+00  0.00000000E+00  0.00000000E+00
  0.00000000E+00  0.00000000E+00  0.00000000E+00
  0.00000000E+00  0.00000000E+00  0.00000000E+00
  0.00000000E+00  0.00000000E+00  0.00000000E+00
  0.00000000E+00  0.00000000E+00  0.00000000E+00
  0.00000000E+00  0.00000000E+00  0.00000000E+00
  0.00000000E+00  0.00000000E+00  0.00000000E+00
  0.00000000E+00  0.00000000E+00  0.00000000E+00
  0.00000000E+00  0.00000000E+00  0.00000000E+00
  0.00000000E+00  0.00000000E+00  0.00000000E+00
  0.00000000E+00  0.00000000E+00  0.00000000E+00
  0.00000000E+00  0.00000000E+00  0.00000000E+00
  0.00000000E+00  0.00000000E+00  0.00000000E+00
  0.00000000E+00  0.00000000E+00  0.00000000E+00
  0.00000000E+00  0.00000000E+00  0.00000000E+00
  0.00000000E+00  0.00000000E+00  0.00000000E+00
  0.00000000E+00  0.00000000E+00  0.00000000E+00
  0.00000000E+00  0.00000000E+00  0.00000000E+00
  0.00000000E+00  0.00000000E+00  0.00000000E+00
  0.00000000E+00  0.00000000E+00  0.00000000E+00
  0.00000000E+00  0.00000000E+00  0.00000000E+00
  0.00000000E+00  0.00000000E+00  0.00000000E+00
  0.00000000E+00  0.00000000E+00  0.00000000E+00
  0.00000000E+00  0.00000000E+00  0.00000000E+00
  0.00000000E+00  0.00000000E+00  0.00000000E+00
  0.00000000E+00  0.00000000E+00  0.00000000E+00
  0.00000000E+00  0.00000000E+00  0.00000000E+00
  0.00000000E+00  0.00000000E+00  0.00000000E+00
