FeNi2Pd_sqsbcc                          
   3.00000000000000     
     1.2235005859998858   -0.8506385985911713    2.5894953994110592
     1.2248333210697524    2.5860682637418329   -0.8484984186073905
    -3.6751120840411033   -0.8665064731082991   -0.8736908286933158
   Fe   Ni   Pd
     8    16     8
Direct
  0.7400823200006009  0.4929053897129798  0.7372536824699923
  0.4942887994322692  0.7373518084336956  0.2424879349093682
  0.2633017072963857  0.7553520700306636  0.5118719836792834
  0.2666393503536579  0.7648938098857838  0.0030431592721198
  0.7264503419584976  0.4816740750512788  0.2359658730200837
  0.0076224199893397  0.2501074956857083  0.7606317924045750
  0.0025179338559308  0.4983764856462319  0.5027988127380320
  0.9952918264501281  0.4886799742949053  0.9922832721015730
  0.2682559975454814  0.5226629969772791  0.7668237753390474
  0.7339819855981043  0.9886794542249497  0.2345274270361212
  0.7487858017235920  0.0036518953314103  0.7499434854250331
  0.5134870655019237  0.2609719620279583  0.2541898083364427
  0.5076595027927435  0.5030392182422170  0.4983330394231629
  0.4959379734210417  0.5024693150758267  0.0022985416833419
  0.4995425270625417  0.0032681272466402  0.0009007120607188
  0.7532666288966112  0.7502967135945212  0.5054251952844606
  0.7433503755333193  0.7560447521196135  0.0019674487655770
  0.2376846171576578  0.9819138090597592  0.7414198078073169
  0.4953354966803096  0.7605884717910515  0.7532755425686040
  0.9854414452930541  0.2513024138007414  0.2465575010747348
  0.0080585336421178  0.7537093319302108  0.7522269851604585
  0.5174692128426346  0.0094368686128701  0.5114979012032492
  0.2525871036103396  0.2444917796276519  0.9956169418254650
  0.7401146906004437  0.2374361661121610  0.9970064999432824
  0.2428155586554878  0.9847685653896602  0.2369331440598696
  0.9871368828069150  0.9900507673385145  0.9884542310287605
  0.7649482897987765  0.2540317754528936  0.5077322899732974
  0.5105995486880744  0.2547337162995669  0.7574662633809551
  0.9921604061163792  0.0023659201759407  0.5033445902865393
  0.2524219462318448  0.2673050344069408  0.5027155073089280
  0.2514981760652199  0.5068812767173663  0.2523290370132433
  0.0012655343985978  0.7405585597030006  0.2526778134163487
 
  0.00000000E+00  0.00000000E+00  0.00000000E+00
  0.00000000E+00  0.00000000E+00  0.00000000E+00
  0.00000000E+00  0.00000000E+00  0.00000000E+00
  0.00000000E+00  0.00000000E+00  0.00000000E+00
  0.00000000E+00  0.00000000E+00  0.00000000E+00
  0.00000000E+00  0.00000000E+00  0.00000000E+00
  0.00000000E+00  0.00000000E+00  0.00000000E+00
  0.00000000E+00  0.00000000E+00  0.00000000E+00
  0.00000000E+00  0.00000000E+00  0.00000000E+00
  0.00000000E+00  0.00000000E+00  0.00000000E+00
  0.00000000E+00  0.00000000E+00  0.00000000E+00
  0.00000000E+00  0.00000000E+00  0.00000000E+00
  0.00000000E+00  0.00000000E+00  0.00000000E+00
  0.00000000E+00  0.00000000E+00  0.00000000E+00
  0.00000000E+00  0.00000000E+00  0.00000000E+00
  0.00000000E+00  0.00000000E+00  0.00000000E+00
  0.00000000E+00  0.00000000E+00  0.00000000E+00
  0.00000000E+00  0.00000000E+00  0.00000000E+00
  0.00000000E+00  0.00000000E+00  0.00000000E+00
  0.00000000E+00  0.00000000E+00  0.00000000E+00
  0.00000000E+00  0.00000000E+00  0.00000000E+00
  0.00000000E+00  0.00000000E+00  0.00000000E+00
  0.00000000E+00  0.00000000E+00  0.00000000E+00
  0.00000000E+00  0.00000000E+00  0.00000000E+00
  0.00000000E+00  0.00000000E+00  0.00000000E+00
  0.00000000E+00  0.00000000E+00  0.00000000E+00
  0.00000000E+00  0.00000000E+00  0.00000000E+00
  0.00000000E+00  0.00000000E+00  0.00000000E+00
  0.00000000E+00  0.00000000E+00  0.00000000E+00
  0.00000000E+00  0.00000000E+00  0.00000000E+00
  0.00000000E+00  0.00000000E+00  0.00000000E+00
  0.00000000E+00  0.00000000E+00  0.00000000E+00
