FeCr2Co_32sqsfcc                        
   1.00000000000000     
     3.0101514362226185    3.7668862272382415    7.6194045655545226
     3.0166724696415348    3.8087128415206064   -7.6439798898279303
    -3.0699888409890010    3.8336189454650729   -0.0083662028304524
   Fe   Cr   Co
     8    16     8
Direct
  0.9974795262400151  0.5050264798423257  0.9420769328543626
  0.0092851734222790  0.7609640323479147  0.6821114477887610
  0.9945390934059424  0.2551696948506823  0.7315607361871092
  0.9788690878206820  0.0049814899062706  0.5084538223503725
  0.7554823530284557  0.7424943406834633  0.4480517879026524
  0.2358006894309688  0.0083720495728025  0.2582391767293712
  0.7550509126803883  0.2512557367217670  0.5274819064975167
  0.7367787161944598  0.9988642107500025  0.8191991462154112
  0.9991660783391775  0.7562762777904148  0.1881953261496894
  0.2526432700172866  0.7555414509565844  0.9976001803198117
  0.2565774695826906  0.7515695170907352  0.5002646547509403
  0.0101360036633386  0.2693423863717675  0.2250430510626580
  0.2709619892679533  0.5137834751598450  0.2095452810800540
  0.5189184028612187  0.7476192195088340  0.2564161920711827
  0.9847779452980869  0.0045973235001411  0.0011287240912294
  0.2526285818026233  0.2526451398191413  0.9654913112736317
  0.5051434161473426  0.4784705674167097  0.0333556813289741
  0.2544941871355451  0.5024053209647427  0.7220562920486219
  0.5125896639260302  0.7408355535604403  0.7600902051478184
  0.4887082366337555  0.9886949726055427  0.0713966083544540
  0.7409334020773348  0.2463900116283010  0.0340377050088005
  0.2414542324331168  0.0055903752451528  0.7487491154447674
  0.7531865339416872  0.5068356872227300  0.7191008018881855
  0.4947949171290669  0.9918370655161652  0.5705900689844315
  0.0121575521890417  0.5142036326839350  0.4338510232965465
  0.7562135702869703  0.7384059165840656  0.9488718337292901
  0.2352746855017347  0.2535114577054808  0.4661569517504850
  0.4998957556752229  0.4798312567912079  0.5307951768639343
  0.4918162075895775  0.2326940296348205  0.3305543871459538
  0.7522554802329633  0.4934674670306703  0.2327049319575142
  0.5067920116230401  0.2377786131354740  0.8204881645569628
  0.7451948544219580  0.0105452474018806  0.3163413751684893
 
  0.00000000E+00  0.00000000E+00  0.00000000E+00
  0.00000000E+00  0.00000000E+00  0.00000000E+00
  0.00000000E+00  0.00000000E+00  0.00000000E+00
  0.00000000E+00  0.00000000E+00  0.00000000E+00
  0.00000000E+00  0.00000000E+00  0.00000000E+00
  0.00000000E+00  0.00000000E+00  0.00000000E+00
  0.00000000E+00  0.00000000E+00  0.00000000E+00
  0.00000000E+00  0.00000000E+00  0.00000000E+00
  0.00000000E+00  0.00000000E+00  0.00000000E+00
  0.00000000E+00  0.00000000E+00  0.00000000E+00
  0.00000000E+00  0.00000000E+00  0.00000000E+00
  0.00000000E+00  0.00000000E+00  0.00000000E+00
  0.00000000E+00  0.00000000E+00  0.00000000E+00
  0.00000000E+00  0.00000000E+00  0.00000000E+00
  0.00000000E+00  0.00000000E+00  0.00000000E+00
  0.00000000E+00  0.00000000E+00  0.00000000E+00
  0.00000000E+00  0.00000000E+00  0.00000000E+00
  0.00000000E+00  0.00000000E+00  0.00000000E+00
  0.00000000E+00  0.00000000E+00  0.00000000E+00
  0.00000000E+00  0.00000000E+00  0.00000000E+00
  0.00000000E+00  0.00000000E+00  0.00000000E+00
  0.00000000E+00  0.00000000E+00  0.00000000E+00
  0.00000000E+00  0.00000000E+00  0.00000000E+00
  0.00000000E+00  0.00000000E+00  0.00000000E+00
  0.00000000E+00  0.00000000E+00  0.00000000E+00
  0.00000000E+00  0.00000000E+00  0.00000000E+00
  0.00000000E+00  0.00000000E+00  0.00000000E+00
  0.00000000E+00  0.00000000E+00  0.00000000E+00
  0.00000000E+00  0.00000000E+00  0.00000000E+00
  0.00000000E+00  0.00000000E+00  0.00000000E+00
  0.00000000E+00  0.00000000E+00  0.00000000E+00
  0.00000000E+00  0.00000000E+00  0.00000000E+00
