CrCoMn2_sqsbcc                          
   3.00000000000000     
     0.9455826561642492   -0.9390442266495667    2.8249015265787456
     0.9431521098926657    2.8172691113467208   -0.9407775076961342
    -2.8290266713441010   -0.9405472242436945   -0.9447033064351951
   Cr   Co   Mn
     8     8    16
Direct
  0.7492593466152092  0.5062720638033111  0.7494037993800962
  0.5095384488208553  0.7561804914605509  0.2602977249191643
  0.2562437716890119  0.7615271473976103  0.5102995311050303
  0.2535128997226216  0.7513904200135180  0.0039809098711793
  0.7454723580985659  0.5004742387344816  0.2461638081204991
  0.0094543504864325  0.2581632239312528  0.7622019366022761
  0.0121044172176934  0.5121119719062664  0.5081621175627330
 -0.0089779201817319  0.4932060423434013 -0.0131291595313071
  0.2633953875504808  0.0095204156722471  0.2566326534667158
 -0.0023506004392082  0.0002991537544044 -0.0008564889454902
  0.7511601705672127  0.2499793067368148  0.4995076127852452
  0.4961448505221199  0.2467935165747378  0.7485568922810958
  0.0000606554072047 -0.0004775473987426  0.4990751073519714
  0.2409142308269535  0.2404793151104631  0.4891151401879881
  0.2478201519830169  0.4989138281680436  0.2529272429892653
 -0.0003500881308536  0.7517883122753994  0.2437827456532397
  0.2297985507839236  0.4898266661397171  0.7396922480457542
  0.7416792928825624 -0.0100905898990724  0.2441863321115154
  0.7501309463643403  0.0015904631412175  0.7537917007304067
  0.5095403735250880  0.2533349448186983  0.2467207362710374
  0.4967448207319550  0.4948735649869228  0.4939253684841261
  0.4975140602961776  0.4995252469205012 -0.0012249612945710
  0.5020722680794732 -0.0003053688240686  0.0060776487667564
  0.7521415857484873  0.7465272538779324  0.5002309825921922
  0.7420181104371254  0.7413301991165896 -0.0108291628230406
  0.2461123334300594 -0.0064136275790339  0.7442882036809851
  0.5066353206253896  0.7493242658295249  0.7477129359698758
 -0.0022656877752055  0.2529020055608110  0.2556082735152642
  0.0071426019098993  0.7502824990966327  0.7608256737806431
  0.4912367298902888 -0.0088376233387267  0.4920282467937432
  0.2427237613184866  0.2447502321531694 -0.0036477218850719
  0.7633725009963646  0.2647579675154248  0.0144919214606810
 
  0.00000000E+00  0.00000000E+00  0.00000000E+00
  0.00000000E+00  0.00000000E+00  0.00000000E+00
  0.00000000E+00  0.00000000E+00  0.00000000E+00
  0.00000000E+00  0.00000000E+00  0.00000000E+00
  0.00000000E+00  0.00000000E+00  0.00000000E+00
  0.00000000E+00  0.00000000E+00  0.00000000E+00
  0.00000000E+00  0.00000000E+00  0.00000000E+00
  0.00000000E+00  0.00000000E+00  0.00000000E+00
  0.00000000E+00  0.00000000E+00  0.00000000E+00
  0.00000000E+00  0.00000000E+00  0.00000000E+00
  0.00000000E+00  0.00000000E+00  0.00000000E+00
  0.00000000E+00  0.00000000E+00  0.00000000E+00
  0.00000000E+00  0.00000000E+00  0.00000000E+00
  0.00000000E+00  0.00000000E+00  0.00000000E+00
  0.00000000E+00  0.00000000E+00  0.00000000E+00
  0.00000000E+00  0.00000000E+00  0.00000000E+00
  0.00000000E+00  0.00000000E+00  0.00000000E+00
  0.00000000E+00  0.00000000E+00  0.00000000E+00
  0.00000000E+00  0.00000000E+00  0.00000000E+00
  0.00000000E+00  0.00000000E+00  0.00000000E+00
  0.00000000E+00  0.00000000E+00  0.00000000E+00
  0.00000000E+00  0.00000000E+00  0.00000000E+00
  0.00000000E+00  0.00000000E+00  0.00000000E+00
  0.00000000E+00  0.00000000E+00  0.00000000E+00
  0.00000000E+00  0.00000000E+00  0.00000000E+00
  0.00000000E+00  0.00000000E+00  0.00000000E+00
  0.00000000E+00  0.00000000E+00  0.00000000E+00
  0.00000000E+00  0.00000000E+00  0.00000000E+00
  0.00000000E+00  0.00000000E+00  0.00000000E+00
  0.00000000E+00  0.00000000E+00  0.00000000E+00
  0.00000000E+00  0.00000000E+00  0.00000000E+00
  0.00000000E+00  0.00000000E+00  0.00000000E+00
