FeNi2Mn_sqsbcc                          
   3.00000000000000     
     0.8521535288944141   -1.1904146099897925    2.5334504080221629
     0.8567310421203699    3.5566378266241889   -0.8461274000050194
    -2.5485488639095899   -1.1884004530484873   -0.8499869258713650
   Fe   Ni   Mn
     8    16     8
Direct
  0.7574059280559049  0.5067752659182316  0.7536415411063977
  0.4907053630995700  0.7438388253780502  0.2430405571500831
  0.2614864829809113  0.7648103142271528  0.5137263405217503
  0.2494755614418886  0.7532265273640071  0.0005681472467177
  0.7400519149310720  0.4977558995355890  0.2450966258148130
 -0.0005856103444792  0.2460069414201050  0.7463214262680085
  0.0029012599948449  0.5005657927910704  0.4931641787643786
 -0.0021232831830917  0.4982892974804263  0.0026245401952260
  0.2534911651190243  0.5063402235984480  0.7550360797653166
  0.7495790472240998  0.0003877990298141  0.2533682036418541
  0.7410604881118085 -0.0044708027819757  0.7441677143075693
  0.5014148252521656  0.2484993340287487  0.2483930875917522
  0.4993051148136303  0.4931570071352835  0.4974233009064759
  0.4950474645543115  0.4946241666633776 -0.0070262536409982
  0.5006275524957480 -0.0002781423986675  0.0006607090033931
  0.7453016231827800  0.7470137786222643  0.4921325639507738
  0.7643512000790545  0.7644205260910544  0.0132304240056080
  0.2528363829089453 -0.0003501008981619  0.7539380466419096
  0.4948641394512676  0.7457080031772344  0.7488657262494558
  0.9890153998268248  0.2415569083150555  0.2446574498821953
  0.0016103583596372  0.7488699051488066  0.7476125747478229
  0.5033519664496779  0.0026553741472011  0.5039295454652496
  0.2478942992021475  0.2492691038231669 -0.0053137066778346
  0.7532477815388019  0.2567965874842784  0.0054935404693751
  0.2612957828974192  0.0071763928289724  0.2648814337490333
  0.9876878236406897  0.9919419058257565  0.9800478988364696
  0.7551133478741962  0.2536362201805631  0.5010013079677766
  0.4958035884148412  0.2460529984215469  0.7442080102187099
 -0.0000012134531166 -0.0118776691724310  0.4959739260772298
  0.2588630913456570  0.2654013391910797  0.5153214255726737
  0.2486969830323862  0.4926899706146466  0.2571788995743564
  0.0002241707013590  0.7495103068093059  0.2466347346264434
 
  0.00000000E+00  0.00000000E+00  0.00000000E+00
  0.00000000E+00  0.00000000E+00  0.00000000E+00
  0.00000000E+00  0.00000000E+00  0.00000000E+00
  0.00000000E+00  0.00000000E+00  0.00000000E+00
  0.00000000E+00  0.00000000E+00  0.00000000E+00
  0.00000000E+00  0.00000000E+00  0.00000000E+00
  0.00000000E+00  0.00000000E+00  0.00000000E+00
  0.00000000E+00  0.00000000E+00  0.00000000E+00
  0.00000000E+00  0.00000000E+00  0.00000000E+00
  0.00000000E+00  0.00000000E+00  0.00000000E+00
  0.00000000E+00  0.00000000E+00  0.00000000E+00
  0.00000000E+00  0.00000000E+00  0.00000000E+00
  0.00000000E+00  0.00000000E+00  0.00000000E+00
  0.00000000E+00  0.00000000E+00  0.00000000E+00
  0.00000000E+00  0.00000000E+00  0.00000000E+00
  0.00000000E+00  0.00000000E+00  0.00000000E+00
  0.00000000E+00  0.00000000E+00  0.00000000E+00
  0.00000000E+00  0.00000000E+00  0.00000000E+00
  0.00000000E+00  0.00000000E+00  0.00000000E+00
  0.00000000E+00  0.00000000E+00  0.00000000E+00
  0.00000000E+00  0.00000000E+00  0.00000000E+00
  0.00000000E+00  0.00000000E+00  0.00000000E+00
  0.00000000E+00  0.00000000E+00  0.00000000E+00
  0.00000000E+00  0.00000000E+00  0.00000000E+00
  0.00000000E+00  0.00000000E+00  0.00000000E+00
  0.00000000E+00  0.00000000E+00  0.00000000E+00
  0.00000000E+00  0.00000000E+00  0.00000000E+00
  0.00000000E+00  0.00000000E+00  0.00000000E+00
  0.00000000E+00  0.00000000E+00  0.00000000E+00
  0.00000000E+00  0.00000000E+00  0.00000000E+00
  0.00000000E+00  0.00000000E+00  0.00000000E+00
  0.00000000E+00  0.00000000E+00  0.00000000E+00
