FeCo2Mn_32sqsfcc                        
   4.00000000000000     
     0.8832787601877795    0.8816493655692965    1.7601990369295395
     0.8831295984107201    0.8827659253981047   -1.7606852649104172
    -0.8833359716566767    0.8823349852947885   -0.0003184269972287
   Fe   Co   Mn
     8    16     8
Direct
  0.9989513336298158  0.5001385102392745 -0.0021846903704368
  0.0075528511851797  0.7550437284867350  0.7502827695078546
  0.0017191697426039  0.2518798604428515  0.7520226274888867
  0.0004781761355560  0.0025454623845070  0.4953654325053838
  0.7510504256980546  0.7499388761721210  0.5054457998875160
  0.2492905684826887  0.9975996494007867  0.2491545853534460
  0.7460627073141229  0.2514591245300840  0.4991461836372119
  0.7477746415519460  0.0036084213181965  0.7529157607791129
  0.0013451023382098  0.7493767241736095  0.2520094047703757
  0.2513093031856564  0.7475450313323425  0.0013973428606551
  0.2522837106623848  0.7480159563906460  0.5015660018128687
  0.9985789782152922  0.2494646619605603  0.2505707807017932
  0.2506293941473717  0.4968512570143140  0.2521712074567782
  0.4974484110051393  0.7514959519567642  0.2498033099873704
  0.0009707944549984  0.0016890796073223 -0.0018127741441455
  0.2459216462580096  0.2517249316911728 -0.0009866849226344
  0.4982387796474340  0.4976494163685747  0.9967194316401984
  0.2521232781370717  0.4997676021247779  0.7532469641652784
  0.4974643807077526  0.7504680248400959  0.7513789093613171
  0.4987474099884495  0.9957923351912973  0.9981472135567951
  0.7473536106038509  0.2509489879869177  0.0004008486688877
  0.2538470519147558  0.0037731433631793  0.7481630845319474
  0.7494689600528929  0.4965676775337367  0.7510523198340222
  0.4997697661807043  0.9979373540107882  0.5005499082827980
  0.9986510991929840  0.5026390772545581  0.4976035033234764
  0.7488954108066495  0.7456567237707113  0.0032386395028809
  0.2547014639939805  0.2512743906144809  0.5003536742890617
  0.5027270174044519  0.4973379784277674  0.4994325585705692
  0.4942712855805066  0.2443018126456277  0.2492795005623020
  0.7526840394472293  0.5040333229584303  0.2495505048529582
  0.4997792811734376  0.2524466492901645  0.7461178199131268
  0.7499099511608485  0.0010282765176122  0.2478980616323165
 
  0.00000000E+00  0.00000000E+00  0.00000000E+00
  0.00000000E+00  0.00000000E+00  0.00000000E+00
  0.00000000E+00  0.00000000E+00  0.00000000E+00
  0.00000000E+00  0.00000000E+00  0.00000000E+00
  0.00000000E+00  0.00000000E+00  0.00000000E+00
  0.00000000E+00  0.00000000E+00  0.00000000E+00
  0.00000000E+00  0.00000000E+00  0.00000000E+00
  0.00000000E+00  0.00000000E+00  0.00000000E+00
  0.00000000E+00  0.00000000E+00  0.00000000E+00
  0.00000000E+00  0.00000000E+00  0.00000000E+00
  0.00000000E+00  0.00000000E+00  0.00000000E+00
  0.00000000E+00  0.00000000E+00  0.00000000E+00
  0.00000000E+00  0.00000000E+00  0.00000000E+00
  0.00000000E+00  0.00000000E+00  0.00000000E+00
  0.00000000E+00  0.00000000E+00  0.00000000E+00
  0.00000000E+00  0.00000000E+00  0.00000000E+00
  0.00000000E+00  0.00000000E+00  0.00000000E+00
  0.00000000E+00  0.00000000E+00  0.00000000E+00
  0.00000000E+00  0.00000000E+00  0.00000000E+00
  0.00000000E+00  0.00000000E+00  0.00000000E+00
  0.00000000E+00  0.00000000E+00  0.00000000E+00
  0.00000000E+00  0.00000000E+00  0.00000000E+00
  0.00000000E+00  0.00000000E+00  0.00000000E+00
  0.00000000E+00  0.00000000E+00  0.00000000E+00
  0.00000000E+00  0.00000000E+00  0.00000000E+00
  0.00000000E+00  0.00000000E+00  0.00000000E+00
  0.00000000E+00  0.00000000E+00  0.00000000E+00
  0.00000000E+00  0.00000000E+00  0.00000000E+00
  0.00000000E+00  0.00000000E+00  0.00000000E+00
  0.00000000E+00  0.00000000E+00  0.00000000E+00
  0.00000000E+00  0.00000000E+00  0.00000000E+00
  0.00000000E+00  0.00000000E+00  0.00000000E+00
