Fe2CrPd_sqsbcc                          
   3.00000000000000     
     1.0069114340134446   -0.9095781865755385    2.9315671718645646
     1.0861837933323617    2.7513952058127686   -0.9962809161759414
    -3.1652812087264168   -0.9286455964777114   -0.9347723970451113
   Fe   Cr   Pd
    16     8     8
Direct
  0.2537438990682042  0.4977472519347567  0.7404801744337345
  0.7321555669887694  0.9755912860145338  0.2269716317413949
  0.6933034042862360  0.9747595089941672  0.7039728247395404
  0.5227378731475488  0.2586035676550733  0.2635867993926901
  0.4471616340520095  0.4616841145447941  0.4332083342368181
  0.5471225975903363  0.5374050139283566  0.0532085398549263
  0.5055944433226397 -0.0003343953477752 -0.0020307507148795
  0.8008596935390235  0.7940858494198169  0.5613746428655201
  0.7189295890017174  0.7194553583602002 -0.0252934882719821
  0.2936597200038557  0.0402447669087960  0.8050039648534817
  0.4848841721424818  0.7381168199603829  0.7347865206672689
  0.9723777376673493  0.2333107768594815  0.2346752538831323
  0.0271808780943335  0.7600446776190767  0.7676738751801697
  0.4179923240423443  0.9252847032980986  0.4103572314657369
  0.3209984385481006  0.3031167923136290  0.0669999117594658
  0.7657799371778988  0.2702821159990367  0.0257299403347403
  0.6517945443184189  0.4336713894716190  0.6433626556192708
  0.5983844186960845  0.8281533116641910  0.3529280393783440
  0.2705587887237119  0.7751725787251230  0.5417500177114732
  0.3183436341987867  0.7867464574302656  0.0362138600761648
  0.7951252711588458  0.5395626050544269  0.3130865943603671
  0.1225170080095951  0.3755958370581612  0.8816985504055594
 -0.0010442300207129  0.4980224022260281  0.4902364610052227
  0.9002735136617405  0.4102250752676727  0.9019699787116049
  0.1582179437835249  0.9031867500541834  0.1384364424282397
  0.9325354871832704  0.9566414217419721  0.9361110101391750
  0.8036980317225249  0.2842857132591963  0.5510378976578624
  0.4955041561004730  0.2399284410060281  0.7435975155890082
  0.0398587660789983  0.0471118135016017  0.5579490424102207
  0.2261414958790784  0.2287871229460828  0.4635637060633891
  0.1929745298622515  0.4697291781632103  0.2032074446865214
 -0.0093652680294337  0.7337816939678067  0.2441453773358193
 
  0.00000000E+00  0.00000000E+00  0.00000000E+00
  0.00000000E+00  0.00000000E+00  0.00000000E+00
  0.00000000E+00  0.00000000E+00  0.00000000E+00
  0.00000000E+00  0.00000000E+00  0.00000000E+00
  0.00000000E+00  0.00000000E+00  0.00000000E+00
  0.00000000E+00  0.00000000E+00  0.00000000E+00
  0.00000000E+00  0.00000000E+00  0.00000000E+00
  0.00000000E+00  0.00000000E+00  0.00000000E+00
  0.00000000E+00  0.00000000E+00  0.00000000E+00
  0.00000000E+00  0.00000000E+00  0.00000000E+00
  0.00000000E+00  0.00000000E+00  0.00000000E+00
  0.00000000E+00  0.00000000E+00  0.00000000E+00
  0.00000000E+00  0.00000000E+00  0.00000000E+00
  0.00000000E+00  0.00000000E+00  0.00000000E+00
  0.00000000E+00  0.00000000E+00  0.00000000E+00
  0.00000000E+00  0.00000000E+00  0.00000000E+00
  0.00000000E+00  0.00000000E+00  0.00000000E+00
  0.00000000E+00  0.00000000E+00  0.00000000E+00
  0.00000000E+00  0.00000000E+00  0.00000000E+00
  0.00000000E+00  0.00000000E+00  0.00000000E+00
  0.00000000E+00  0.00000000E+00  0.00000000E+00
  0.00000000E+00  0.00000000E+00  0.00000000E+00
  0.00000000E+00  0.00000000E+00  0.00000000E+00
  0.00000000E+00  0.00000000E+00  0.00000000E+00
  0.00000000E+00  0.00000000E+00  0.00000000E+00
  0.00000000E+00  0.00000000E+00  0.00000000E+00
  0.00000000E+00  0.00000000E+00  0.00000000E+00
  0.00000000E+00  0.00000000E+00  0.00000000E+00
  0.00000000E+00  0.00000000E+00  0.00000000E+00
  0.00000000E+00  0.00000000E+00  0.00000000E+00
  0.00000000E+00  0.00000000E+00  0.00000000E+00
  0.00000000E+00  0.00000000E+00  0.00000000E+00
