NiCrMn2_sqsbcc                          
   3.00000000000000     
     0.9051113097204389   -0.8829849313729501    2.9493748294385806
     0.9249686289720971    2.6702003993133312   -0.9833716004694627
    -2.7684372466627591   -0.8862025650577762   -0.9670831443799701
   Ni   Cr   Mn
     8     8    16
Direct
  0.7228401930027214  0.4761323604620762  0.7327755175147844
  0.6304679541225414  0.8745317935676289  0.3764104005439596
  0.2244487650466755  0.7245054857695212  0.4752202836730643
  0.3442414131844237  0.8234704423371855  0.0937313838832135
  0.6233575831390099  0.3789370201174756  0.1290361955405991
  0.1328519964199926  0.3712309787316394  0.8752276454534359
  0.9103553905321226  0.4297845634128081  0.4081687659612845
  0.0166328916624253  0.5134203609361465  0.0156755426181650
  0.2272434660143942  0.9730815785590358  0.2354479606359736
  0.9821233589258661  0.9760372139686827  0.9790025013884810
  0.8413315773782036  0.3251015549746280  0.5929360583272408
  0.4436426308259495  0.2019988020716360  0.7134912460665435
  0.9939684938488506  0.0117448100872398  0.5060574672043896
  0.2517707303289661  0.2580463272940259  0.5050312080169822
  0.3117567778773570  0.5510732648810381  0.2914448681780887
  0.9393774041854004  0.6991667471764399  0.2002742299141300
  0.2207963861095666  0.4961069704316731  0.7136058904006372
  0.7304634212249860  0.9954001107427497  0.2148714154844413
  0.8057536983938510  0.0422828147473594  0.7818743059557386
  0.5308957102858352  0.2657302356069768  0.2987169190339647
  0.4801715066087978  0.4833882253719906  0.4843740011555707
  0.4959162994734993  0.5194029074728400  0.0058193276430316
  0.4114017520784258  0.9297891720941628  0.9164588087958055
  0.7420076949844490  0.7168726157257003  0.4866174113786663
  0.7515638159636341  0.7571734259374587  0.0074053974955554
  0.1224869303097449  0.8914986325863706  0.6310889481940860
  0.5363488214661294  0.7930252356537895  0.7743125961959068
  0.0346932706620211  0.2822441492892211  0.2702658344359780
  0.0470059316856358  0.7700702596500151  0.7951526294945745
  0.5079195111253583  0.0213801821496123  0.5195059687682456
  0.2532403547416734  0.2232409000655945 -0.0018063354950641
  0.7329242683915288  0.2241308581272705  0.9718056061425610
 
  0.00000000E+00  0.00000000E+00  0.00000000E+00
  0.00000000E+00  0.00000000E+00  0.00000000E+00
  0.00000000E+00  0.00000000E+00  0.00000000E+00
  0.00000000E+00  0.00000000E+00  0.00000000E+00
  0.00000000E+00  0.00000000E+00  0.00000000E+00
  0.00000000E+00  0.00000000E+00  0.00000000E+00
  0.00000000E+00  0.00000000E+00  0.00000000E+00
  0.00000000E+00  0.00000000E+00  0.00000000E+00
  0.00000000E+00  0.00000000E+00  0.00000000E+00
  0.00000000E+00  0.00000000E+00  0.00000000E+00
  0.00000000E+00  0.00000000E+00  0.00000000E+00
  0.00000000E+00  0.00000000E+00  0.00000000E+00
  0.00000000E+00  0.00000000E+00  0.00000000E+00
  0.00000000E+00  0.00000000E+00  0.00000000E+00
  0.00000000E+00  0.00000000E+00  0.00000000E+00
  0.00000000E+00  0.00000000E+00  0.00000000E+00
  0.00000000E+00  0.00000000E+00  0.00000000E+00
  0.00000000E+00  0.00000000E+00  0.00000000E+00
  0.00000000E+00  0.00000000E+00  0.00000000E+00
  0.00000000E+00  0.00000000E+00  0.00000000E+00
  0.00000000E+00  0.00000000E+00  0.00000000E+00
  0.00000000E+00  0.00000000E+00  0.00000000E+00
  0.00000000E+00  0.00000000E+00  0.00000000E+00
  0.00000000E+00  0.00000000E+00  0.00000000E+00
  0.00000000E+00  0.00000000E+00  0.00000000E+00
  0.00000000E+00  0.00000000E+00  0.00000000E+00
  0.00000000E+00  0.00000000E+00  0.00000000E+00
  0.00000000E+00  0.00000000E+00  0.00000000E+00
  0.00000000E+00  0.00000000E+00  0.00000000E+00
  0.00000000E+00  0.00000000E+00  0.00000000E+00
  0.00000000E+00  0.00000000E+00  0.00000000E+00
  0.00000000E+00  0.00000000E+00  0.00000000E+00
