NiCrPd2_SQSfcc                          
   1.00000000000000     
     3.7627495760261920    3.7842630042277801    7.5958422337780194
     3.7873453112615683    3.7965710755574760   -7.6143691365069257
    -3.7886593493332139    3.8040016499839351    0.0030674834176659
   Ni   Cr   Pd
     8     8    16
Direct
 -0.0022859886059733  0.4983609781635308  0.0007751843554765
 -0.0075486476524478  0.7485407214652484  0.7456022320878869
 -0.0058251580394641  0.2466194680573870  0.7498421217348603
 -0.0107577448263219 -0.0039554075126181  0.5030486283239897
  0.7542314974599704  0.7535547806604306  0.4929134470999899
  0.2440106394221343  0.0041998559036121  0.2552103483535126
  0.7516446274867420  0.2553345334856553  0.5006691733032919
  0.7550931964525079  0.0043855356884552  0.7419707260857439
  0.0037426544725067  0.4940507233518303  0.5118335075935502
  0.7552959373334590  0.7534458257785154 -0.0216559297091023
  0.2391573526134199  0.2386187710622062  0.4980624827982852
  0.5038227361093148  0.5035796414378614  0.4953183286704437
  0.5006934834458511  0.2584525402564050  0.2895973457579897
  0.7536812748198507  0.4893798551120521  0.2425043920784528
  0.5067769460550497  0.2508896098262937  0.7486306304111982
  0.7530706249654722  0.0046999684450652  0.2669002701446669
 -0.0138437825058515  0.7405443829894776  0.2505511784945033
  0.2415589823204807  0.7497861084814862 -0.0029917415555772
  0.2444320921276167  0.7493951197798939  0.4972892338105230
 -0.0039424905494197  0.2494496574455359  0.2650408477937692
  0.2527738743834347  0.4966601976496337  0.2523923873173497
  0.5153120635036420  0.7540879273984178  0.2467041583966239
 -0.0123242357596012 -0.0034311608999875 -0.0001503898438660
  0.2547472326486182  0.2438078089491702  0.0042131804727536
  0.5116966391085019  0.4964363302571470  0.0004430230718599
  0.2470243349863024  0.4896742083953927  0.7483610201696675
  0.5126327873976504  0.7535325496516262  0.7462872836975980
  0.4967739801417957  0.0090068474646290  0.0065547069925496
  0.7515788797752212  0.2516678955280193 -0.0033026160920743
  0.2415062239208693  0.0022417919638420  0.7358576288328884
  0.7573388537437904  0.5052108169679970  0.7289289043910130
  0.5079311332448766  0.0117721167957892  0.5025983049601820
 
  0.00000000E+00  0.00000000E+00  0.00000000E+00
  0.00000000E+00  0.00000000E+00  0.00000000E+00
  0.00000000E+00  0.00000000E+00  0.00000000E+00
  0.00000000E+00  0.00000000E+00  0.00000000E+00
  0.00000000E+00  0.00000000E+00  0.00000000E+00
  0.00000000E+00  0.00000000E+00  0.00000000E+00
  0.00000000E+00  0.00000000E+00  0.00000000E+00
  0.00000000E+00  0.00000000E+00  0.00000000E+00
  0.00000000E+00  0.00000000E+00  0.00000000E+00
  0.00000000E+00  0.00000000E+00  0.00000000E+00
  0.00000000E+00  0.00000000E+00  0.00000000E+00
  0.00000000E+00  0.00000000E+00  0.00000000E+00
  0.00000000E+00  0.00000000E+00  0.00000000E+00
  0.00000000E+00  0.00000000E+00  0.00000000E+00
  0.00000000E+00  0.00000000E+00  0.00000000E+00
  0.00000000E+00  0.00000000E+00  0.00000000E+00
  0.00000000E+00  0.00000000E+00  0.00000000E+00
  0.00000000E+00  0.00000000E+00  0.00000000E+00
  0.00000000E+00  0.00000000E+00  0.00000000E+00
  0.00000000E+00  0.00000000E+00  0.00000000E+00
  0.00000000E+00  0.00000000E+00  0.00000000E+00
  0.00000000E+00  0.00000000E+00  0.00000000E+00
  0.00000000E+00  0.00000000E+00  0.00000000E+00
  0.00000000E+00  0.00000000E+00  0.00000000E+00
  0.00000000E+00  0.00000000E+00  0.00000000E+00
  0.00000000E+00  0.00000000E+00  0.00000000E+00
  0.00000000E+00  0.00000000E+00  0.00000000E+00
  0.00000000E+00  0.00000000E+00  0.00000000E+00
  0.00000000E+00  0.00000000E+00  0.00000000E+00
  0.00000000E+00  0.00000000E+00  0.00000000E+00
  0.00000000E+00  0.00000000E+00  0.00000000E+00
  0.00000000E+00  0.00000000E+00  0.00000000E+00
