Fe2CoMn_32sqsfcc                        
   4.00000000000000     
     0.8814392679883254    0.8809445099020562    1.7701278330388253
     0.8775169352495006    0.8800028897150117   -1.7677545228562745
    -0.8764308583712872    0.8774261286824485   -0.0007431351585218
   Fe   Co   Mn
    16     8     8
Direct
  0.9993623652348892  0.7460617941274750  0.2454449690157071
  0.2466214502304723  0.7533586084703450  0.0005839774265815
  0.2455484861724264  0.7538097313603789  0.5027367261112740
  0.0008471073944330  0.2529646312426820  0.2456906420279997
  0.2477576849674514  0.4996056877832242  0.2498389505328287
  0.5006627638003868  0.7465376185059451  0.2475176469643313
  0.9954545518291067  1.0001587661527664  0.0005407410038405
  0.2548123726335066  0.2486253615662460  0.9998655498668275
  0.5030686232102228  0.5013451296006586  0.0008593863198415
  0.2481404560867743  0.4981473695661849  0.7515934493344022
  0.4996903432266250  0.7458769493586771  0.7511588000680255
  0.4985760345155844  0.0028809506935988  0.9982954753805355
  0.7529619853431542  0.2478460101464159  0.9999705621541887
  0.2470918845751623  0.0005828182995340  0.7488735539844533
  0.7501243289023418  0.4989705628594507  0.7567516531243250
  0.4975183971342551  0.0000725793520373  0.4988750974411565
  0.9973362602497176  0.5025783975690677  0.5013110243695537
  0.7508149815582406  0.7486866276421518  0.0025028313462865
  0.2545356402790832  0.2499893800995495  0.4996701751691365
  0.5005977585470799  0.4974467371518302  0.4992517264956655
  0.5014520537893061  0.2531519287044291  0.2513709060823532
  0.7469443281004823  0.4969873931754766  0.2478637049995346
  0.5006138454042361  0.2533518014993835  0.7487164531766354
  0.7506896399049979  0.9992529552926389  0.2475097779136582
  0.9993031454627489  0.5003531631768851  0.0099417406110755
  0.9997025711372541  0.7528300498149196  0.7476887121757800
  0.0058121262835357  0.2543480625973715  0.7489549729535778
  0.0016028332449777  0.0085548216650162  0.4991052072028074
  0.7546998010016680  0.7501270973932800  0.4984216866020938
  0.2457101441217653  0.9997467324402189  0.2509975551012251
  0.7552161259443951  0.2438137425759141  0.4978242140138844
  0.7467299097137069  0.9919365401162548  0.7502721310304145
 
  0.00000000E+00  0.00000000E+00  0.00000000E+00
  0.00000000E+00  0.00000000E+00  0.00000000E+00
  0.00000000E+00  0.00000000E+00  0.00000000E+00
  0.00000000E+00  0.00000000E+00  0.00000000E+00
  0.00000000E+00  0.00000000E+00  0.00000000E+00
  0.00000000E+00  0.00000000E+00  0.00000000E+00
  0.00000000E+00  0.00000000E+00  0.00000000E+00
  0.00000000E+00  0.00000000E+00  0.00000000E+00
  0.00000000E+00  0.00000000E+00  0.00000000E+00
  0.00000000E+00  0.00000000E+00  0.00000000E+00
  0.00000000E+00  0.00000000E+00  0.00000000E+00
  0.00000000E+00  0.00000000E+00  0.00000000E+00
  0.00000000E+00  0.00000000E+00  0.00000000E+00
  0.00000000E+00  0.00000000E+00  0.00000000E+00
  0.00000000E+00  0.00000000E+00  0.00000000E+00
  0.00000000E+00  0.00000000E+00  0.00000000E+00
  0.00000000E+00  0.00000000E+00  0.00000000E+00
  0.00000000E+00  0.00000000E+00  0.00000000E+00
  0.00000000E+00  0.00000000E+00  0.00000000E+00
  0.00000000E+00  0.00000000E+00  0.00000000E+00
  0.00000000E+00  0.00000000E+00  0.00000000E+00
  0.00000000E+00  0.00000000E+00  0.00000000E+00
  0.00000000E+00  0.00000000E+00  0.00000000E+00
  0.00000000E+00  0.00000000E+00  0.00000000E+00
  0.00000000E+00  0.00000000E+00  0.00000000E+00
  0.00000000E+00  0.00000000E+00  0.00000000E+00
  0.00000000E+00  0.00000000E+00  0.00000000E+00
  0.00000000E+00  0.00000000E+00  0.00000000E+00
  0.00000000E+00  0.00000000E+00  0.00000000E+00
  0.00000000E+00  0.00000000E+00  0.00000000E+00
  0.00000000E+00  0.00000000E+00  0.00000000E+00
  0.00000000E+00  0.00000000E+00  0.00000000E+00
