Ternary_FeNiCrSQSfcc                    
   4.00000000000000     
     2.7329638816996011    0.8793989929084700   -0.8793989929084696
    -2.7371501340243589    0.8855261760881828   -0.8855261760881828
     0.0000000000000000    0.4316851019134205    0.4316851019134205
   Fe   Ni   Cr
     8     8     8
Direct
  0.8327525432742685  0.1661101470449123 -0.0000000000000000
  0.4147459872981761  0.0843097932428181 -0.0000000000000000
  0.7073718866799459  0.5404411024242264  0.5000000000000000
  0.2478442542676557  0.2519141277540968 -0.0000000000000000
  0.0001472904223315  0.9979263381491159 -0.0000000000000000
  0.5432794160506667  0.7087561164128022  0.5000000000000000
  0.0354757102702736  0.2083129025617352  0.5000000000000000
  0.1673258685244221  0.8360387536157340 -0.0000000000000000
  0.6663371145854418  0.3314912740179006 -0.0000000000000000
  0.9595180248585004  0.7924391601508827  0.5000000000000000
  0.5015885448352222  0.5006949864303577  0.0000000000000000
  0.2078089115247031  0.0429747529498391  0.5000000000000000
  0.5836825280520350  0.9162190060482295 -0.0000000000000000
  0.3344042218954414  0.6667931966185160 -0.0000000000000000
  0.2935310219867782  0.4594979019027063  0.5000000000000000
  0.1268550934965210  0.6265033623171173  0.5000000000000000
  0.9187676123627345  0.5832612272372436  0.0000000000000000
  0.8711650160057837  0.3671441107569334  0.5000000000000000
  0.6198624147778592  0.1199916722223587  0.5000000000000000
  0.7539437247334677  0.7515153586621125 -0.0000000000000000
  0.4594814000461165  0.2923263911827865  0.5000000000000000
  0.7927979853899872  0.9655366077669988  0.5000000000000000
  0.0857740629514601  0.4176374817106019  0.0000000000000000
  0.3755393657101940  0.8721642288199609  0.5000000000000000
 
  0.00000000E+00  0.00000000E+00  0.00000000E+00
  0.00000000E+00  0.00000000E+00  0.00000000E+00
  0.00000000E+00  0.00000000E+00  0.00000000E+00
  0.00000000E+00  0.00000000E+00  0.00000000E+00
  0.00000000E+00  0.00000000E+00  0.00000000E+00
  0.00000000E+00  0.00000000E+00  0.00000000E+00
  0.00000000E+00  0.00000000E+00  0.00000000E+00
  0.00000000E+00  0.00000000E+00  0.00000000E+00
  0.00000000E+00  0.00000000E+00  0.00000000E+00
  0.00000000E+00  0.00000000E+00  0.00000000E+00
  0.00000000E+00  0.00000000E+00  0.00000000E+00
  0.00000000E+00  0.00000000E+00  0.00000000E+00
  0.00000000E+00  0.00000000E+00  0.00000000E+00
  0.00000000E+00  0.00000000E+00  0.00000000E+00
  0.00000000E+00  0.00000000E+00  0.00000000E+00
  0.00000000E+00  0.00000000E+00  0.00000000E+00
  0.00000000E+00  0.00000000E+00  0.00000000E+00
  0.00000000E+00  0.00000000E+00  0.00000000E+00
  0.00000000E+00  0.00000000E+00  0.00000000E+00
  0.00000000E+00  0.00000000E+00  0.00000000E+00
  0.00000000E+00  0.00000000E+00  0.00000000E+00
  0.00000000E+00  0.00000000E+00  0.00000000E+00
  0.00000000E+00  0.00000000E+00  0.00000000E+00
  0.00000000E+00  0.00000000E+00  0.00000000E+00
