Ni2CrCo_sqsbcc                          
   3.00000000000000     
     0.8875425865823077   -0.8365183160146328    2.9179217050094022
     1.0111603517628069    2.5034447120646783   -1.0165516349385131
    -2.9178055390920274   -0.8310191074955546   -0.8833975230880957
   Ni   Cr   Co
    16     8     8
Direct
  0.1854270106669514  0.4594389143169385  0.6904860807730114
  0.6861902800315703  0.9600630527021577  0.1905884171564814
  0.6899540805225215  0.9579831983038255  0.6882069520664179
  0.5586088202328544  0.2872121246120237  0.3088441975369120
  0.4389215519519529  0.4589262788650036  0.4403937773991057
  0.4373590526023082  0.4569154068985999  0.9373176397548948
  0.4403673223783119  0.9641793929284804  0.9404424083623307
  0.8110283235339504  0.7899612921996506  0.5600542940032320
  0.8105246931476456  0.7874452050491849  0.0594426205146922
  0.1905952337159867  0.9627150919406456  0.6882624636425724
  0.5588486399883568  0.7878433544715839  0.8088439353858753
  0.0624864061615274  0.2895322588897306  0.3126542341150555
  0.0596700766124366  0.7897002597601048  0.8117725417358874
  0.4417189885858209  0.9611099278276701  0.4394087037986204
  0.3100966194596227  0.2887407329935199  0.0604237045528186
  0.8113847552659108  0.2884558495144892  0.0602980032378705
  0.6905074315817280  0.4559645445445897  0.6875294030881702
  0.5557794087433836  0.7865735728439496  0.3062144795807815
  0.3115591832400449  0.7940661931395154  0.5628624919935017
  0.3061197119161174  0.7924014744846212  0.0612335007324831
  0.6935071431345508  0.4657990861393252  0.1871667116707388
  0.0640394501249642  0.2935110572186130  0.8131661678218831
  0.9392707394504418  0.4603400370139684  0.4392474689357810
  0.9480593364774902  0.4662325810393708  0.9466371125466262
  0.1857355750581959  0.9599946474955497  0.1887808850941744
  0.9382713028621639  0.9597626294123826  0.9400175898564002
  0.8076994664217321  0.2893982483533067  0.5615231949416765
  0.5628001427417370  0.2882276910849975  0.8081466532946259
  0.9352281790485611  0.9568695887225386  0.4370490881602541
  0.3128993442719383  0.2882886038813001  0.5614748322831432
  0.1892499847321124  0.4583931307984077  0.1868778357833069
  0.0660917453371182  0.7939545725539346  0.3146326101806480
 
  0.00000000E+00  0.00000000E+00  0.00000000E+00
  0.00000000E+00  0.00000000E+00  0.00000000E+00
  0.00000000E+00  0.00000000E+00  0.00000000E+00
  0.00000000E+00  0.00000000E+00  0.00000000E+00
  0.00000000E+00  0.00000000E+00  0.00000000E+00
  0.00000000E+00  0.00000000E+00  0.00000000E+00
  0.00000000E+00  0.00000000E+00  0.00000000E+00
  0.00000000E+00  0.00000000E+00  0.00000000E+00
  0.00000000E+00  0.00000000E+00  0.00000000E+00
  0.00000000E+00  0.00000000E+00  0.00000000E+00
  0.00000000E+00  0.00000000E+00  0.00000000E+00
  0.00000000E+00  0.00000000E+00  0.00000000E+00
  0.00000000E+00  0.00000000E+00  0.00000000E+00
  0.00000000E+00  0.00000000E+00  0.00000000E+00
  0.00000000E+00  0.00000000E+00  0.00000000E+00
  0.00000000E+00  0.00000000E+00  0.00000000E+00
  0.00000000E+00  0.00000000E+00  0.00000000E+00
  0.00000000E+00  0.00000000E+00  0.00000000E+00
  0.00000000E+00  0.00000000E+00  0.00000000E+00
  0.00000000E+00  0.00000000E+00  0.00000000E+00
  0.00000000E+00  0.00000000E+00  0.00000000E+00
  0.00000000E+00  0.00000000E+00  0.00000000E+00
  0.00000000E+00  0.00000000E+00  0.00000000E+00
  0.00000000E+00  0.00000000E+00  0.00000000E+00
  0.00000000E+00  0.00000000E+00  0.00000000E+00
  0.00000000E+00  0.00000000E+00  0.00000000E+00
  0.00000000E+00  0.00000000E+00  0.00000000E+00
  0.00000000E+00  0.00000000E+00  0.00000000E+00
  0.00000000E+00  0.00000000E+00  0.00000000E+00
  0.00000000E+00  0.00000000E+00  0.00000000E+00
  0.00000000E+00  0.00000000E+00  0.00000000E+00
  0.00000000E+00  0.00000000E+00  0.00000000E+00
