FeNi2Co_SQSfcc                          
   1.00000000000000     
     3.5385695931563133    3.5436736984753017    7.0867890453160802
     3.5352163903300342    3.5360392474877318   -7.0812911954569762
    -3.5328513668703980    3.5358169581677230    0.0010711638815383
   Fe   Ni   Co
     8    16     8
Direct
  0.9971619709991569  0.4991806941514305  0.0032862114754609
  0.0031512279407961  0.7534399865741424  0.7556219419588801
  0.0041406527837458  0.2505912023170094  0.7539259398781344
  0.9999662529587514  0.0026342433749342  0.4981932563658885
  0.7447999102163974  0.7427013818817462  0.4957847281160133
  0.2514314444899320  0.9995948493277710  0.2460733219025421
  0.7506419997746339  0.2540904095399574  0.4952425363475980
  0.7454976985905637  0.9957877991709084  0.7549913925715400
  0.9995775516545399  0.7496014317876517  0.2529037138460352
  0.2499055879498406  0.7505439463409751  0.9978835487132443
  0.2493267007085562  0.7500917120616677  0.4998182628728868
  0.0004476965878268  0.2508279683785029  0.2516690056723314
  0.2501793766905578  0.5007455922566802  0.2488406002569649
  0.5016563824042561  0.7495172622818820  0.2500566898184868
  0.9993833296618260  0.9999660976235016  0.0016717719554401
  0.2517888081274607  0.2494208552455825  0.9983401504446815
  0.5012100411133379  0.5007551349383549  0.9989326180943394
  0.2491273048937482  0.4987109633425715  0.7472783589601212
  0.4986547926876045  0.7485390522483379  0.7498923367059817
  0.5000314684649658  0.0012107500573279  0.0014246559508556
  0.7499732035689982  0.2483646367867146  0.9976264878792860
  0.2517518546532053  0.0017421251994828  0.7466868269867981
  0.7481945939807042  0.4990486240605864  0.7514612720168562
  0.5009120306934880  0.0003520482872444  0.5019362934445702
  0.0016539238030071  0.5027225628595261  0.5028295120233892
  0.7506466935274182  0.7502756173248512  0.9987203816159714
  0.2523293442142385  0.2516445461646373  0.4954812535474458
  0.4970716551321044  0.4957292358923208  0.4999298918003053
  0.5021657614608634  0.2522481883432662  0.2495623956278218
  0.7468605054016278  0.4995819344364602  0.2494359059603430
  0.4999640360914561  0.2500649916801740  0.7508359147236572
  0.7503961987743690  0.0002741560638223  0.2536628224661013
 
  0.00000000E+00  0.00000000E+00  0.00000000E+00
  0.00000000E+00  0.00000000E+00  0.00000000E+00
  0.00000000E+00  0.00000000E+00  0.00000000E+00
  0.00000000E+00  0.00000000E+00  0.00000000E+00
  0.00000000E+00  0.00000000E+00  0.00000000E+00
  0.00000000E+00  0.00000000E+00  0.00000000E+00
  0.00000000E+00  0.00000000E+00  0.00000000E+00
  0.00000000E+00  0.00000000E+00  0.00000000E+00
  0.00000000E+00  0.00000000E+00  0.00000000E+00
  0.00000000E+00  0.00000000E+00  0.00000000E+00
  0.00000000E+00  0.00000000E+00  0.00000000E+00
  0.00000000E+00  0.00000000E+00  0.00000000E+00
  0.00000000E+00  0.00000000E+00  0.00000000E+00
  0.00000000E+00  0.00000000E+00  0.00000000E+00
  0.00000000E+00  0.00000000E+00  0.00000000E+00
  0.00000000E+00  0.00000000E+00  0.00000000E+00
  0.00000000E+00  0.00000000E+00  0.00000000E+00
  0.00000000E+00  0.00000000E+00  0.00000000E+00
  0.00000000E+00  0.00000000E+00  0.00000000E+00
  0.00000000E+00  0.00000000E+00  0.00000000E+00
  0.00000000E+00  0.00000000E+00  0.00000000E+00
  0.00000000E+00  0.00000000E+00  0.00000000E+00
  0.00000000E+00  0.00000000E+00  0.00000000E+00
  0.00000000E+00  0.00000000E+00  0.00000000E+00
  0.00000000E+00  0.00000000E+00  0.00000000E+00
  0.00000000E+00  0.00000000E+00  0.00000000E+00
  0.00000000E+00  0.00000000E+00  0.00000000E+00
  0.00000000E+00  0.00000000E+00  0.00000000E+00
  0.00000000E+00  0.00000000E+00  0.00000000E+00
  0.00000000E+00  0.00000000E+00  0.00000000E+00
  0.00000000E+00  0.00000000E+00  0.00000000E+00
  0.00000000E+00  0.00000000E+00  0.00000000E+00
