Ternary_NiCrPdSQSfcc                    
   4.00000000000000     
     2.6438683113585677    0.9431333520750111   -0.9431333520750111
    -2.6477872903009887    0.9491731909661731   -0.9491731909661731
    -0.0000000000000000    0.4814066147292526    0.4814066147292526
   Ni   Cr   Pd
     8     8     8
Direct
  0.8298124140344773  0.1659024625471876  0.0000000000000000
  0.4253134614511627  0.0847588852650420 -0.0000000000000000
  0.7176863266637896  0.5523464322253397  0.5000000000000000
  0.2409834957721855  0.2440731509045062 -0.0000000000000000
 -0.0000968258541460  0.0058248920010279 -0.0000000000000000
  0.5572918607699886  0.7147679653945573  0.5000000000000000
  0.0285009737701144  0.1991877276811552  0.5000000000000000
  0.1842776858137300  0.8430287721989198  0.0000000000000000
  0.9022649131179279  0.5707283071576020 -0.0000000000000000
  0.8825831951847044  0.3685515856560429  0.5000000000000000
  0.6219893851579084  0.1240324604426319  0.5000000000000000
  0.7539778591837311  0.7638497933145633  0.0000000000000000
  0.4432588109838645  0.2868956129949790  0.5000000000000000
  0.8044208467288544  0.9518642055616877  0.5000000000000000
  0.0584212997393908  0.3989288579955661  0.0000000000000000
  0.3791119685338961  0.8866659034226830  0.5000000000000000
  0.6609859586955263  0.3334092693897149 -0.0000000000000000
  0.9611443140626547  0.7894264243056661  0.5000000000000000
  0.5066119127876259  0.5025805273249103  0.0000000000000000
  0.2140263715917331  0.0451320054682928  0.5000000000000000
  0.5958143638165362  0.9241738594170039  0.0000000000000000
  0.3429155655129210  0.6758888791663371 -0.0000000000000000
  0.2743422613226933  0.4453203881328812  0.5000000000000000
  0.1143615811587389  0.6226616320317303  0.5000000000000000
 
  0.00000000E+00  0.00000000E+00  0.00000000E+00
  0.00000000E+00  0.00000000E+00  0.00000000E+00
  0.00000000E+00  0.00000000E+00  0.00000000E+00
  0.00000000E+00  0.00000000E+00  0.00000000E+00
  0.00000000E+00  0.00000000E+00  0.00000000E+00
  0.00000000E+00  0.00000000E+00  0.00000000E+00
  0.00000000E+00  0.00000000E+00  0.00000000E+00
  0.00000000E+00  0.00000000E+00  0.00000000E+00
  0.00000000E+00  0.00000000E+00  0.00000000E+00
  0.00000000E+00  0.00000000E+00  0.00000000E+00
  0.00000000E+00  0.00000000E+00  0.00000000E+00
  0.00000000E+00  0.00000000E+00  0.00000000E+00
  0.00000000E+00  0.00000000E+00  0.00000000E+00
  0.00000000E+00  0.00000000E+00  0.00000000E+00
  0.00000000E+00  0.00000000E+00  0.00000000E+00
  0.00000000E+00  0.00000000E+00  0.00000000E+00
  0.00000000E+00  0.00000000E+00  0.00000000E+00
  0.00000000E+00  0.00000000E+00  0.00000000E+00
  0.00000000E+00  0.00000000E+00  0.00000000E+00
  0.00000000E+00  0.00000000E+00  0.00000000E+00
  0.00000000E+00  0.00000000E+00  0.00000000E+00
  0.00000000E+00  0.00000000E+00  0.00000000E+00
  0.00000000E+00  0.00000000E+00  0.00000000E+00
  0.00000000E+00  0.00000000E+00  0.00000000E+00
