Fe2NiCo_32sqsfcc                        
   4.00000000000000     
     0.9082424021940890    0.8608162187658640    1.8122983474904286
     0.9011637975388138    0.8627286082815605   -1.8096065208977299
    -0.9073563660523782    0.8644681841495404   -0.0021960949036682
   Fe   Ni   Co
    16     8     8
Direct
  0.9927670275605133  0.7485758608797237  0.2609141542352409
  0.2469888778245191  0.7539574463406744  0.0098284138900640
  0.2527305666187594  0.7556228802437137  0.5111320204119620
  0.0002073760285643  0.2551096086430112  0.2667257678783838
  0.2531080337821754  0.5029699171273690  0.2694146627734562
  0.5038675801142619  0.7442010868990850  0.2322711352584598
  0.9921455859737810  0.0026750950601866  0.0001627537169695
  0.2488696307855438  0.2474299961845642  0.0123502865047859
  0.5057108023529403  0.4914085897619334  0.9963305451025475
  0.2478839488821455  0.4985135869588593  0.7690501567488074
  0.5044091346338276  0.7448145397378667  0.7329519628278927
  0.4951624416931948  0.9961864084283554  0.9844699288490659
  0.7475965076328933  0.2445584964311285  0.9950511392406393
  0.2464802880277826  0.0069166485215518  0.7431718538768627
  0.7573381966369050  0.5035506832040471  0.7415668420104005
  0.5033792443449230  0.0041717184347809  0.4810682305235410
  0.9991666954668910  0.5011489235127784  0.0071886597892914
  0.0014204568883675  0.7549568835936123  0.7589503864338958
  0.0003388271033891  0.2535900233578570  0.7605225610642615
  0.9985016831209286  0.0025590093652793  0.5021771411375240
  0.7499917304361081  0.7484530031997095  0.4920581285626413
  0.2434095232816455  0.0016362957315454  0.2491981660787347
  0.7505431395582843  0.2503651132192797  0.4983431288061035
  0.7480575530423476  0.9976901778162106  0.7367513233355604
  0.0029565000864166  0.5045499541289346  0.5087870373414861
  0.7511844402436801  0.7490542499703194  0.9902074575031093
  0.2523307427865726  0.2516379451683612  0.5092317231610035
  0.5041833961108433  0.4944046390976449  0.4956646439497560
  0.5000146898964478  0.2473037857160386  0.2495335520972656
  0.7499068619276582  0.4955439371999652  0.2495623391945687
  0.5019389757772935  0.2502834016505275  0.7420206039149557
  0.7474095413803804  0.9961600944151190  0.2433432937807193
 
  0.00000000E+00  0.00000000E+00  0.00000000E+00
  0.00000000E+00  0.00000000E+00  0.00000000E+00
  0.00000000E+00  0.00000000E+00  0.00000000E+00
  0.00000000E+00  0.00000000E+00  0.00000000E+00
  0.00000000E+00  0.00000000E+00  0.00000000E+00
  0.00000000E+00  0.00000000E+00  0.00000000E+00
  0.00000000E+00  0.00000000E+00  0.00000000E+00
  0.00000000E+00  0.00000000E+00  0.00000000E+00
  0.00000000E+00  0.00000000E+00  0.00000000E+00
  0.00000000E+00  0.00000000E+00  0.00000000E+00
  0.00000000E+00  0.00000000E+00  0.00000000E+00
  0.00000000E+00  0.00000000E+00  0.00000000E+00
  0.00000000E+00  0.00000000E+00  0.00000000E+00
  0.00000000E+00  0.00000000E+00  0.00000000E+00
  0.00000000E+00  0.00000000E+00  0.00000000E+00
  0.00000000E+00  0.00000000E+00  0.00000000E+00
  0.00000000E+00  0.00000000E+00  0.00000000E+00
  0.00000000E+00  0.00000000E+00  0.00000000E+00
  0.00000000E+00  0.00000000E+00  0.00000000E+00
  0.00000000E+00  0.00000000E+00  0.00000000E+00
  0.00000000E+00  0.00000000E+00  0.00000000E+00
  0.00000000E+00  0.00000000E+00  0.00000000E+00
  0.00000000E+00  0.00000000E+00  0.00000000E+00
  0.00000000E+00  0.00000000E+00  0.00000000E+00
  0.00000000E+00  0.00000000E+00  0.00000000E+00
  0.00000000E+00  0.00000000E+00  0.00000000E+00
  0.00000000E+00  0.00000000E+00  0.00000000E+00
  0.00000000E+00  0.00000000E+00  0.00000000E+00
  0.00000000E+00  0.00000000E+00  0.00000000E+00
  0.00000000E+00  0.00000000E+00  0.00000000E+00
  0.00000000E+00  0.00000000E+00  0.00000000E+00
  0.00000000E+00  0.00000000E+00  0.00000000E+00
