Cr2CoMn_sqsbcc                          
   3.00000000000000     
     0.9372373674369118   -0.9395751197451978    2.8628969485905440
     0.9310407228022869    2.8187239449730837   -0.9522682293919231
    -2.8029574203649585   -0.9377526158054736   -0.9566312950106144
   Cr   Co   Mn
    16     8     8
Direct
  0.2577816366405167  0.5089016712199987  0.7600754132016929
  0.7558642690331355  0.0072096116236408  0.2570477588702343
  0.7306655535917208 -0.0126640399786367  0.7333802544499191
  0.4930814954766701  0.2415269801755135  0.2468693530127198
  0.4925380709978925  0.4913844365828928  0.4952946782980606
  0.4830018636341367  0.4885452255240488  0.9833580928083964
  0.5054034214207873  0.0100120315288851  0.9951170982558227
  0.7470060800758487  0.7526559860593295  0.5040544344836571
  0.7445040139107502  0.7427067361123053 -0.0011678131987796
  0.2235867501646569  0.9661909269232712  0.7201101890769079
  0.4955596836670954  0.7447772148140067  0.7474188401632959
  0.9965177240327489  0.2459588280240423  0.2448943249325975
 -0.0082864529149915  0.7454495259668408  0.7402682673044652
  0.5315812632381058  0.0425628560334851  0.5264911448134353
  0.2536293186848313  0.2487165584404859 -0.0014167200946218
  0.7809739242002841  0.2802415326442406  0.0307255766890869
  0.7541428104013038  0.5039810442577971  0.7573877993978744
  0.4899195890875757  0.7506613830158047  0.2539135949904059
  0.2828563071638728  0.7723337726759650  0.5103311467418848
  0.2639607933438099  0.7661268144533858  0.0091262384093060
  0.7152921204223599  0.4768603234289202  0.2223115005669576
  0.0028678702319909  0.2506143476714481  0.7538081599124675
  0.0086864967032822  0.5090514258024433  0.5002247464337006
  0.0442537599198467  0.5377068992585539  0.0411210680088146
  0.2495924195733890 -0.0014272063590184  0.2526315802585988
  0.9859359226702293  0.9856134057364991  0.9898918783334626
  0.7701445609824886  0.2683284624553842  0.5139751036859880
  0.4960801261743205  0.2425362836790420  0.7560085982588659
  0.9802110849532601  0.9800704150770684  0.4868977272107592
  0.2440434980978886  0.2422682309983446  0.4930542447792651
  0.2307386592953552  0.4643864210622513  0.2246317227424225
 -0.0021346348751561  0.7467118950917859  0.2521639972023379
 
  0.00000000E+00  0.00000000E+00  0.00000000E+00
  0.00000000E+00  0.00000000E+00  0.00000000E+00
  0.00000000E+00  0.00000000E+00  0.00000000E+00
  0.00000000E+00  0.00000000E+00  0.00000000E+00
  0.00000000E+00  0.00000000E+00  0.00000000E+00
  0.00000000E+00  0.00000000E+00  0.00000000E+00
  0.00000000E+00  0.00000000E+00  0.00000000E+00
  0.00000000E+00  0.00000000E+00  0.00000000E+00
  0.00000000E+00  0.00000000E+00  0.00000000E+00
  0.00000000E+00  0.00000000E+00  0.00000000E+00
  0.00000000E+00  0.00000000E+00  0.00000000E+00
  0.00000000E+00  0.00000000E+00  0.00000000E+00
  0.00000000E+00  0.00000000E+00  0.00000000E+00
  0.00000000E+00  0.00000000E+00  0.00000000E+00
  0.00000000E+00  0.00000000E+00  0.00000000E+00
  0.00000000E+00  0.00000000E+00  0.00000000E+00
  0.00000000E+00  0.00000000E+00  0.00000000E+00
  0.00000000E+00  0.00000000E+00  0.00000000E+00
  0.00000000E+00  0.00000000E+00  0.00000000E+00
  0.00000000E+00  0.00000000E+00  0.00000000E+00
  0.00000000E+00  0.00000000E+00  0.00000000E+00
  0.00000000E+00  0.00000000E+00  0.00000000E+00
  0.00000000E+00  0.00000000E+00  0.00000000E+00
  0.00000000E+00  0.00000000E+00  0.00000000E+00
  0.00000000E+00  0.00000000E+00  0.00000000E+00
  0.00000000E+00  0.00000000E+00  0.00000000E+00
  0.00000000E+00  0.00000000E+00  0.00000000E+00
  0.00000000E+00  0.00000000E+00  0.00000000E+00
  0.00000000E+00  0.00000000E+00  0.00000000E+00
  0.00000000E+00  0.00000000E+00  0.00000000E+00
  0.00000000E+00  0.00000000E+00  0.00000000E+00
  0.00000000E+00  0.00000000E+00  0.00000000E+00
