NiCr2Pd_32sqsfcc                        
   4.00000000000000     
     0.8628636065220830    0.9472069398907197    1.9099348689365594
     0.8826152685021419    0.9625215729205269   -1.9270914646401363
    -0.8806717264635252    0.9625976949171995    0.0008461554157724
   Ni   Cr   Pd
     8    16     8
Direct
  0.0138957260644255  0.5151358519180020 -0.0184669523996482
  0.0075730324745466  0.7606930544689234  0.7487950349861030
 -0.0071000259287228  0.2439740875589363  0.7475091310415283
 -0.0052694451861685 -0.0022897226675653  0.4882965419503747
  0.7574087887857854  0.7552898234049902  0.5053958837895725
  0.2322235467674376 -0.0014287821403050  0.2273316471826728
  0.7567291848709524  0.2439541928915241  0.5200258946620846
  0.7437197351615958  0.0018316347539983  0.7687961436599000
  0.0043829900098468  0.7539684664894694  0.2540375440010248
  0.2549978095221394  0.7709021550922831 -0.0393328495937958
  0.2586658781497042  0.7660393537525843  0.4579515962080296
  0.0065415280942828  0.2654517607104649  0.2350771274655627
  0.2657950793295818  0.5249764488362447  0.1843253060476095
  0.4920240339161651  0.7427011801599538  0.2724895054647778
  0.0063102189499882  0.0102217168950998 -0.0221492082930050
  0.2358554836066759  0.2484343650348996 -0.0166214504190823
  0.4899704120792988  0.4791166333662852  0.0241436888188986
  0.2472851950976802  0.5025828252405161  0.7259791793649871
  0.4900376038580105  0.7329411669244287  0.7841985340922885
  0.4813089101470946 -0.0217947657909073  0.0535451839616177
  0.7669144862440730  0.2492202814378408 -0.0016210868832508
  0.2371590423824985  0.0012416916790579  0.7234126199077802
  0.7599795353275007  0.5138780123633798  0.7403551412615151
  0.4866388676933757 -0.0222479644763607  0.5798113926503038
  0.0117088366434568  0.5011443949824482  0.4901389740029926
  0.7493407090417642  0.7511193564007351 -0.0017149811013688
  0.2399392281412738  0.2546292602383477  0.4840962018289798
  0.5083315571195466  0.5039083238503782  0.5157188507471092
  0.5013715704530997  0.2227828728589560  0.2791620357529472
  0.7572416029428349  0.4902496472163149  0.2379439265660412
  0.5049150830927424  0.2381580059852164  0.7791659261658020
  0.7441037951475151  0.0032146705638588  0.2722035171096481
 
  0.00000000E+00  0.00000000E+00  0.00000000E+00
  0.00000000E+00  0.00000000E+00  0.00000000E+00
  0.00000000E+00  0.00000000E+00  0.00000000E+00
  0.00000000E+00  0.00000000E+00  0.00000000E+00
  0.00000000E+00  0.00000000E+00  0.00000000E+00
  0.00000000E+00  0.00000000E+00  0.00000000E+00
  0.00000000E+00  0.00000000E+00  0.00000000E+00
  0.00000000E+00  0.00000000E+00  0.00000000E+00
  0.00000000E+00  0.00000000E+00  0.00000000E+00
  0.00000000E+00  0.00000000E+00  0.00000000E+00
  0.00000000E+00  0.00000000E+00  0.00000000E+00
  0.00000000E+00  0.00000000E+00  0.00000000E+00
  0.00000000E+00  0.00000000E+00  0.00000000E+00
  0.00000000E+00  0.00000000E+00  0.00000000E+00
  0.00000000E+00  0.00000000E+00  0.00000000E+00
  0.00000000E+00  0.00000000E+00  0.00000000E+00
  0.00000000E+00  0.00000000E+00  0.00000000E+00
  0.00000000E+00  0.00000000E+00  0.00000000E+00
  0.00000000E+00  0.00000000E+00  0.00000000E+00
  0.00000000E+00  0.00000000E+00  0.00000000E+00
  0.00000000E+00  0.00000000E+00  0.00000000E+00
  0.00000000E+00  0.00000000E+00  0.00000000E+00
  0.00000000E+00  0.00000000E+00  0.00000000E+00
  0.00000000E+00  0.00000000E+00  0.00000000E+00
  0.00000000E+00  0.00000000E+00  0.00000000E+00
  0.00000000E+00  0.00000000E+00  0.00000000E+00
  0.00000000E+00  0.00000000E+00  0.00000000E+00
  0.00000000E+00  0.00000000E+00  0.00000000E+00
  0.00000000E+00  0.00000000E+00  0.00000000E+00
  0.00000000E+00  0.00000000E+00  0.00000000E+00
  0.00000000E+00  0.00000000E+00  0.00000000E+00
  0.00000000E+00  0.00000000E+00  0.00000000E+00
