Fe2NiCr_32sqsfcc                        
   4.00000000000000     
     0.8806299072085575    0.8903413157439573    1.7924916083993694
     0.8845883738471628    0.8879714648484249   -1.7932730718446002
    -0.8814345100130734    0.8879720922160131    0.0015765552836597
   Fe   Ni   Cr
    16     8     8
Direct
  0.9980290823809422  0.7445307846860287  0.2486298909173145
  0.2503138226054735  0.7509121976529793  0.9899736064193895
  0.2548756784856861  0.7504161316678345  0.4873433096354962
  0.0032957025973715  0.2570191183857745  0.2564709624755276
  0.2539174571146269  0.5012016280855861  0.2377797251539960
  0.5114953224570978  0.7491489868957265  0.2441097158148347
  0.9987802227070227  0.0009585527597850  0.0008016296436527
  0.2528278974600832  0.2553485869520038  0.9972888068136928
  0.4940428594279487  0.4967236808929713  0.0019855144587699
  0.2456524859016660  0.4938326182381848  0.7462968113341123
  0.5062164822215551  0.7498806621282870  0.7528573146360985
  0.4975284082911255  0.9973300315918378  0.0106360611807561
  0.7494571324369989  0.2447035308207013  0.0006973877044475
  0.2517922480359887  0.0067183633643515  0.7406809837224035
  0.7520411698002053  0.5041751193084084  0.7471670481699907
  0.5025228741647472  0.0005313985432726  0.5101688222063965
  0.9971878422518766  0.4990989191230891  0.9983152031779873
  0.0048538637576612  0.7536643399937684  0.7459597583440687
  0.9992331662445970  0.2487987337110903  0.7558022238661107
  0.9984965590579763  0.0001608657802526  0.5005391337260142
  0.7531317816018446  0.7481981304053281  0.4904832466544016
  0.2448928509200402  0.9997353881355229  0.2460914288281376
  0.7524805617704066  0.2498494148300993  0.5052019098123124
  0.7494214395561575  0.9978026984880246  0.7539247175800495
  0.0040330954972223  0.5016438438295632  0.4989491961877086
  0.7508978825047382  0.7440930408494482  0.9848032392045430
  0.2421058861803901  0.2490413147788178  0.4948082746565572
  0.4998951753678408  0.5122867962561599  0.5044904480354523
  0.4964955735628009  0.2448162288282849  0.2771314424722101
  0.7275057019549211  0.4837250235750231  0.2416953946018704
  0.5103105945481125  0.2587370900917270  0.7711479139369605
  0.7462691791348821  0.0049167793500751  0.2577688786287293
 
  0.00000000E+00  0.00000000E+00  0.00000000E+00
  0.00000000E+00  0.00000000E+00  0.00000000E+00
  0.00000000E+00  0.00000000E+00  0.00000000E+00
  0.00000000E+00  0.00000000E+00  0.00000000E+00
  0.00000000E+00  0.00000000E+00  0.00000000E+00
  0.00000000E+00  0.00000000E+00  0.00000000E+00
  0.00000000E+00  0.00000000E+00  0.00000000E+00
  0.00000000E+00  0.00000000E+00  0.00000000E+00
  0.00000000E+00  0.00000000E+00  0.00000000E+00
  0.00000000E+00  0.00000000E+00  0.00000000E+00
  0.00000000E+00  0.00000000E+00  0.00000000E+00
  0.00000000E+00  0.00000000E+00  0.00000000E+00
  0.00000000E+00  0.00000000E+00  0.00000000E+00
  0.00000000E+00  0.00000000E+00  0.00000000E+00
  0.00000000E+00  0.00000000E+00  0.00000000E+00
  0.00000000E+00  0.00000000E+00  0.00000000E+00
  0.00000000E+00  0.00000000E+00  0.00000000E+00
  0.00000000E+00  0.00000000E+00  0.00000000E+00
  0.00000000E+00  0.00000000E+00  0.00000000E+00
  0.00000000E+00  0.00000000E+00  0.00000000E+00
  0.00000000E+00  0.00000000E+00  0.00000000E+00
  0.00000000E+00  0.00000000E+00  0.00000000E+00
  0.00000000E+00  0.00000000E+00  0.00000000E+00
  0.00000000E+00  0.00000000E+00  0.00000000E+00
  0.00000000E+00  0.00000000E+00  0.00000000E+00
  0.00000000E+00  0.00000000E+00  0.00000000E+00
  0.00000000E+00  0.00000000E+00  0.00000000E+00
  0.00000000E+00  0.00000000E+00  0.00000000E+00
  0.00000000E+00  0.00000000E+00  0.00000000E+00
  0.00000000E+00  0.00000000E+00  0.00000000E+00
  0.00000000E+00  0.00000000E+00  0.00000000E+00
  0.00000000E+00  0.00000000E+00  0.00000000E+00
