FeCr2Pd_32sqsfcc                        
   4.00000000000000     
     1.0093110440700817    0.8308940387916314    2.0114210675246795
     0.9425595296352017    0.8230156596959723   -1.9741530544145074
    -0.9749392821524281    0.8230540825010604   -0.0143748788584249
   Fe   Cr   Pd
     8    16     8
Direct
  0.0066411767039899  0.5074674769675149  0.0306917728378021
  0.0260486588582213  0.7751108849925477  0.8086560880430721
  0.9818436642957686  0.2380231948537586  0.7253590943195395
  0.0122936307406415  0.0152762963441149  0.4915952983346330
  0.7955901403733646  0.7658378045015691  0.5033677282553498
  0.2121908110225618  0.9835473740671574  0.2608973848332129
  0.7487250691344103  0.2474265096167973  0.4637649528422235
  0.7308287859012715  0.9733932129810425  0.7032293575737102
  0.0021962393365226  0.7482809087477339  0.2902769108961091
  0.2614798856565606  0.7685590567700348  0.0450945452815534
  0.2602777485295228  0.7672098923928790  0.5396652576047185
  0.0182589853119192  0.2711560605821313  0.2413270503181739
  0.2682010505942659  0.5213154050687545  0.3133059452871577
  0.4942017445403280  0.7459005229282212  0.2452930556301764
  0.9778038802285876  0.9944968676819879  0.9654261952672872
  0.1941618951814201  0.2165647770202794  0.0378525725279518
  0.4567299707469343  0.4755740739615071  0.9726805731772660
  0.2411596416145310  0.5046092623756951  0.8713828652996822
  0.4831652101147031  0.7441949462778661  0.7465824220220277
  0.4914309356878806  0.9886528572942429  0.9450572221833591
  0.7679864312303223  0.2311691315043611  0.9410791778490398
  0.2531288797210555  0.0133712292487719  0.7589792402484729
  0.7905658881607998  0.5162530222112532  0.7242072750477661
  0.4911281826752848  0.9901734031349304  0.4484644697529455
  0.0181258530184102  0.5086274069480081  0.5293459641550258
  0.7305596911671294  0.7281065693947917  0.9875470847789685
  0.2584083586206148  0.2742310471926437  0.5546910203912890
  0.5345231775006710  0.5209659192949579  0.4912562053487672
  0.4625032038120319  0.2233871117359039  0.2105990740097359
  0.7426360511737558  0.4755708290642187  0.2023994625322669
  0.5305892067030733  0.2587042547677839  0.7309590808469434
  0.7566159516434318  0.0068426900765396  0.2189656525037889
 
  0.00000000E+00  0.00000000E+00  0.00000000E+00
  0.00000000E+00  0.00000000E+00  0.00000000E+00
  0.00000000E+00  0.00000000E+00  0.00000000E+00
  0.00000000E+00  0.00000000E+00  0.00000000E+00
  0.00000000E+00  0.00000000E+00  0.00000000E+00
  0.00000000E+00  0.00000000E+00  0.00000000E+00
  0.00000000E+00  0.00000000E+00  0.00000000E+00
  0.00000000E+00  0.00000000E+00  0.00000000E+00
  0.00000000E+00  0.00000000E+00  0.00000000E+00
  0.00000000E+00  0.00000000E+00  0.00000000E+00
  0.00000000E+00  0.00000000E+00  0.00000000E+00
  0.00000000E+00  0.00000000E+00  0.00000000E+00
  0.00000000E+00  0.00000000E+00  0.00000000E+00
  0.00000000E+00  0.00000000E+00  0.00000000E+00
  0.00000000E+00  0.00000000E+00  0.00000000E+00
  0.00000000E+00  0.00000000E+00  0.00000000E+00
  0.00000000E+00  0.00000000E+00  0.00000000E+00
  0.00000000E+00  0.00000000E+00  0.00000000E+00
  0.00000000E+00  0.00000000E+00  0.00000000E+00
  0.00000000E+00  0.00000000E+00  0.00000000E+00
  0.00000000E+00  0.00000000E+00  0.00000000E+00
  0.00000000E+00  0.00000000E+00  0.00000000E+00
  0.00000000E+00  0.00000000E+00  0.00000000E+00
  0.00000000E+00  0.00000000E+00  0.00000000E+00
  0.00000000E+00  0.00000000E+00  0.00000000E+00
  0.00000000E+00  0.00000000E+00  0.00000000E+00
  0.00000000E+00  0.00000000E+00  0.00000000E+00
  0.00000000E+00  0.00000000E+00  0.00000000E+00
  0.00000000E+00  0.00000000E+00  0.00000000E+00
  0.00000000E+00  0.00000000E+00  0.00000000E+00
  0.00000000E+00  0.00000000E+00  0.00000000E+00
  0.00000000E+00  0.00000000E+00  0.00000000E+00
