CrCoPd2_SQSbcc                          
   1.00000000000000     
     3.2590233374871924   -2.6512776916219987    8.7108301964416377
     3.5254762623936724    8.0342079030346092   -2.9707794769067943
   -10.3706495320973868   -2.6887873330913861   -2.7121161140155521
   Cr   Co   Pd
     8     8    16
Direct
  0.8336061769618636  0.5556526574149714  0.8360688247915513
  0.5378674884365302  0.7761526143978333  0.2855424940837171
  0.1634915318488781  0.6919532202334282  0.4030232821334147
  0.2657915277943170  0.7657353231022769  0.0437143896480078
  0.7356084869694917  0.4906492071066784  0.2244444022736852
  0.0381293004026378  0.2763359143084332  0.7891678729808135
  0.9672020381816071  0.4765023675466870  0.4709563731818099
  0.0981720053881672  0.5698132982232893  0.1017860051983189
  0.3179790559405031  0.0484314998947064  0.3335418922722412
  0.0932576707408213  0.0597747071901758  0.1035544812829103
  0.7753515290557208  0.2658525875028532  0.5366330148196066
  0.3851339951201965  0.1735860701454461  0.6298385940713717
  0.9830295052801780  0.9743526675799156  0.4570584149660430
  0.1550128252768614  0.1782222397139158  0.4020177559215753
  0.3463308117755692  0.5638176075696577  0.3377958779873331
  0.9311329614138952  0.7124629663650645  0.1703206819144255
  0.2088140815684518  0.4733005204428044  0.7229313399961292
  0.7217918799560111  0.9847144431102626  0.2316437435074068
  0.8503105130630393  0.0709838383125037  0.8462354072660283
  0.5275433464507762  0.2571930927577541  0.2835927789648981
  0.5800418910084187  0.5494952075453283  0.5846011433909863
  0.4795752918758209  0.4780220544211503  0.9731607381098462
  0.4732290723462694  0.9877997444739400  0.9755780721886647
  0.7837069350466604  0.7769871143424337  0.5251095798931834
  0.6625799822937636  0.6852525225105350  0.9091972025446275
  0.2095848428442667  0.9656794466213787  0.6997418030833018
  0.3992042552384225  0.6879545973771241  0.6510306384236766
  0.9156510407386885  0.1989066703262583  0.1623116478403343
  0.0265681467016634  0.7593270472924526  0.7821343053777570
  0.5868030846991656  0.0611051047223975  0.5826057927424221
  0.2840145017886821  0.2722701880053083  0.0357828095867991
  0.6634842237926253  0.2117134594430780  0.9088786395571204
 
  0.00000000E+00  0.00000000E+00  0.00000000E+00
  0.00000000E+00  0.00000000E+00  0.00000000E+00
  0.00000000E+00  0.00000000E+00  0.00000000E+00
  0.00000000E+00  0.00000000E+00  0.00000000E+00
  0.00000000E+00  0.00000000E+00  0.00000000E+00
  0.00000000E+00  0.00000000E+00  0.00000000E+00
  0.00000000E+00  0.00000000E+00  0.00000000E+00
  0.00000000E+00  0.00000000E+00  0.00000000E+00
  0.00000000E+00  0.00000000E+00  0.00000000E+00
  0.00000000E+00  0.00000000E+00  0.00000000E+00
  0.00000000E+00  0.00000000E+00  0.00000000E+00
  0.00000000E+00  0.00000000E+00  0.00000000E+00
  0.00000000E+00  0.00000000E+00  0.00000000E+00
  0.00000000E+00  0.00000000E+00  0.00000000E+00
  0.00000000E+00  0.00000000E+00  0.00000000E+00
  0.00000000E+00  0.00000000E+00  0.00000000E+00
  0.00000000E+00  0.00000000E+00  0.00000000E+00
  0.00000000E+00  0.00000000E+00  0.00000000E+00
  0.00000000E+00  0.00000000E+00  0.00000000E+00
  0.00000000E+00  0.00000000E+00  0.00000000E+00
  0.00000000E+00  0.00000000E+00  0.00000000E+00
  0.00000000E+00  0.00000000E+00  0.00000000E+00
  0.00000000E+00  0.00000000E+00  0.00000000E+00
  0.00000000E+00  0.00000000E+00  0.00000000E+00
  0.00000000E+00  0.00000000E+00  0.00000000E+00
  0.00000000E+00  0.00000000E+00  0.00000000E+00
  0.00000000E+00  0.00000000E+00  0.00000000E+00
  0.00000000E+00  0.00000000E+00  0.00000000E+00
  0.00000000E+00  0.00000000E+00  0.00000000E+00
  0.00000000E+00  0.00000000E+00  0.00000000E+00
  0.00000000E+00  0.00000000E+00  0.00000000E+00
  0.00000000E+00  0.00000000E+00  0.00000000E+00
