FeNi2Pd_32sqsfcc                        
   4.00000000000000     
     0.9197399239683315    0.9183303940093485    1.8119529820343878
     0.9192522748049375    0.9205947289623344   -1.8128150019824254
    -0.9268384789367430    0.9267996527253198   -0.0006617764569847
   Fe   Ni   Pd
     8    16     8
Direct
  0.0074308146742641  0.5023296362238518  0.0061479609032545
  0.0083346225853143  0.7578622503680317  0.7521889653853056
  0.0031985428484916  0.2474024838468404  0.7677529630159137
  0.9942309005225300  0.9973134331980179  0.5051905071365619
  0.7477284369817857  0.7511156333290623  0.4910848985520647
  0.2451495308191068  0.9889583259251812  0.2422981601238580
  0.7591486433036230  0.2522908099527779  0.5026798355127284
  0.7436747410177086  0.0023501092967376  0.7528641164474809
  0.0062538364417594  0.7581745862824092  0.2528622974843076
  0.2455472259923957  0.7491897150760641  0.9961987008783111
  0.2531211490327845  0.7543246534735428  0.4981461606654654
  0.9988481447151556  0.2517481466593471  0.2414938125521590
  0.2508250801201036  0.5047065322107699  0.2390763856108641
  0.4921010399933287  0.7515822094268293  0.2455051352099931
  0.0055461506931219  0.0033124684155228  0.0008942538146228
  0.2436566659194100  0.2485992391082639  0.0019124790310494
  0.4927137732444120  0.5018738120082953  0.0029851383814187
  0.2509795126642499  0.5018746191352954  0.7700641951541860
  0.4937399388707323  0.7552270645893160  0.7496917581474625
  0.4892731946676417  0.9864237366930397  0.9948473853554707
  0.7629862753787332  0.2532671905056582  0.9823823045004094
  0.2445719763853577  0.9918826650758005  0.7507392115928100
  0.7598433175775842  0.5023717244978800  0.7495162198691273
  0.4927816657179622  0.9879318124759203  0.5064203750682567
  0.0117188732426314  0.5019230413527955  0.5105607055399630
  0.7501064738216227  0.7526675468789251  0.9831362711708934
  0.2381862128145471  0.2454256368085334  0.4995175588529117
  0.4987905832063896  0.5106201752571972  0.5071739753084115
  0.5015301719500946  0.2366264340688991  0.2479587475122234
  0.7562816022414115  0.4996706956565341  0.2443093628050329
  0.5054427796828700  0.2448983144380008  0.7540426397763977
  0.7462581228728695  0.0060552977646523  0.2503575186411066
 
  0.00000000E+00  0.00000000E+00  0.00000000E+00
  0.00000000E+00  0.00000000E+00  0.00000000E+00
  0.00000000E+00  0.00000000E+00  0.00000000E+00
  0.00000000E+00  0.00000000E+00  0.00000000E+00
  0.00000000E+00  0.00000000E+00  0.00000000E+00
  0.00000000E+00  0.00000000E+00  0.00000000E+00
  0.00000000E+00  0.00000000E+00  0.00000000E+00
  0.00000000E+00  0.00000000E+00  0.00000000E+00
  0.00000000E+00  0.00000000E+00  0.00000000E+00
  0.00000000E+00  0.00000000E+00  0.00000000E+00
  0.00000000E+00  0.00000000E+00  0.00000000E+00
  0.00000000E+00  0.00000000E+00  0.00000000E+00
  0.00000000E+00  0.00000000E+00  0.00000000E+00
  0.00000000E+00  0.00000000E+00  0.00000000E+00
  0.00000000E+00  0.00000000E+00  0.00000000E+00
  0.00000000E+00  0.00000000E+00  0.00000000E+00
  0.00000000E+00  0.00000000E+00  0.00000000E+00
  0.00000000E+00  0.00000000E+00  0.00000000E+00
  0.00000000E+00  0.00000000E+00  0.00000000E+00
  0.00000000E+00  0.00000000E+00  0.00000000E+00
  0.00000000E+00  0.00000000E+00  0.00000000E+00
  0.00000000E+00  0.00000000E+00  0.00000000E+00
  0.00000000E+00  0.00000000E+00  0.00000000E+00
  0.00000000E+00  0.00000000E+00  0.00000000E+00
  0.00000000E+00  0.00000000E+00  0.00000000E+00
  0.00000000E+00  0.00000000E+00  0.00000000E+00
  0.00000000E+00  0.00000000E+00  0.00000000E+00
  0.00000000E+00  0.00000000E+00  0.00000000E+00
  0.00000000E+00  0.00000000E+00  0.00000000E+00
  0.00000000E+00  0.00000000E+00  0.00000000E+00
  0.00000000E+00  0.00000000E+00  0.00000000E+00
  0.00000000E+00  0.00000000E+00  0.00000000E+00
