CrCo2Pd_32sqsfcc                        
   4.00000000000000     
     0.9169754447523941    0.9135306451846005    1.8200760113630388
     0.9107115014086304    0.9147983361292257   -1.8175376731104353
    -0.9241770392983768    0.9245326205346884   -0.0018982870791124
   Cr   Co   Pd
     8    16     8
Direct
  0.0012791365093318  0.4961428561549663  0.0034746014802092
  0.0077839764145384  0.7515398638033024  0.7578608492549148
  0.0078269754710946  0.2542135299110467  0.7848089378127175
 -0.0150141760860734 -0.0049326990988848  0.5073167750464085
  0.7701458221918559  0.7568562500982932  0.4952742453721120
  0.2473246619233668 -0.0135290690046320  0.2365361715948222
  0.7541330218131269  0.2481868071340035  0.5104848901449406
  0.7623098501412324  0.0195355237395219  0.7500912530675490
  0.0144910414620071  0.7604589469935079  0.2491885397801377
  0.2488039347571746  0.7472774422054423 -0.0060228114099909
  0.2535437995159026  0.7515432410976994  0.5008420537998806
 -0.0038318515441971  0.2463972979582316  0.2389285646637185
  0.2495250267747093  0.5019000067980298  0.2301023398421122
  0.4829828765710139  0.7510010852384755  0.2372484039806375
  0.0108726681087645  0.0010634020442749  0.0019575267404957
  0.2403850280894907  0.2495064732515098  0.0025302944175809
  0.4894416539888771  0.5063953822982319  0.0006557676574990
  0.2533361665105562  0.5032360249159835  0.7708905595229167
  0.4881401317801751  0.7541998572972931  0.7559067865657904
  0.4845851002179329 -0.0149392749378802 -0.0112696292155060
  0.7641731612310493  0.2599726318506497 -0.0153462112495517
  0.2433187940052380 -0.0127386532834337  0.7492590034451843
  0.7584422881808145  0.4972467073688213  0.7562926636755064
  0.4876158105336420 -0.0150662015545001  0.5074475677122016
  0.0104884669545866  0.4981496689280343  0.5049752521523647
  0.7491054248096783  0.7530285027997683 -0.0159480289378871
  0.2361635475357910  0.2446492005664378  0.5001584130990073
  0.5014135258870788  0.5157625229635528  0.5051199449395122
  0.5013606428605045  0.2385401145673722  0.2464891157542176
  0.7564616760575845  0.5028202679470813  0.2476544950846344
  0.5025438972808945  0.2457280986654889  0.7534511240697321
  0.7408479200522567  0.0058541912823111  0.2436405401361320
 
  0.00000000E+00  0.00000000E+00  0.00000000E+00
  0.00000000E+00  0.00000000E+00  0.00000000E+00
  0.00000000E+00  0.00000000E+00  0.00000000E+00
  0.00000000E+00  0.00000000E+00  0.00000000E+00
  0.00000000E+00  0.00000000E+00  0.00000000E+00
  0.00000000E+00  0.00000000E+00  0.00000000E+00
  0.00000000E+00  0.00000000E+00  0.00000000E+00
  0.00000000E+00  0.00000000E+00  0.00000000E+00
  0.00000000E+00  0.00000000E+00  0.00000000E+00
  0.00000000E+00  0.00000000E+00  0.00000000E+00
  0.00000000E+00  0.00000000E+00  0.00000000E+00
  0.00000000E+00  0.00000000E+00  0.00000000E+00
  0.00000000E+00  0.00000000E+00  0.00000000E+00
  0.00000000E+00  0.00000000E+00  0.00000000E+00
  0.00000000E+00  0.00000000E+00  0.00000000E+00
  0.00000000E+00  0.00000000E+00  0.00000000E+00
  0.00000000E+00  0.00000000E+00  0.00000000E+00
  0.00000000E+00  0.00000000E+00  0.00000000E+00
  0.00000000E+00  0.00000000E+00  0.00000000E+00
  0.00000000E+00  0.00000000E+00  0.00000000E+00
  0.00000000E+00  0.00000000E+00  0.00000000E+00
  0.00000000E+00  0.00000000E+00  0.00000000E+00
  0.00000000E+00  0.00000000E+00  0.00000000E+00
  0.00000000E+00  0.00000000E+00  0.00000000E+00
  0.00000000E+00  0.00000000E+00  0.00000000E+00
  0.00000000E+00  0.00000000E+00  0.00000000E+00
  0.00000000E+00  0.00000000E+00  0.00000000E+00
  0.00000000E+00  0.00000000E+00  0.00000000E+00
  0.00000000E+00  0.00000000E+00  0.00000000E+00
  0.00000000E+00  0.00000000E+00  0.00000000E+00
  0.00000000E+00  0.00000000E+00  0.00000000E+00
  0.00000000E+00  0.00000000E+00  0.00000000E+00
