FeCo2Pd_sqsbcc                          
   3.00000000000000     
     0.9680566680488780   -0.9866675368266395    2.8873945313916107
     0.9449288599184857    2.9613352944506208   -0.9546549071465007
    -2.8912007469280323   -0.9703793855682779   -0.9613760303848761
   Fe   Co   Pd
     8    16     8
Direct
  0.7778645360924041  0.5482850131666930  0.7935955438476656
  0.5073281493239540  0.7588594541912913  0.2521235517817845
  0.2830966063007392  0.7754833302626780  0.5441619500988069
  0.2340012570047163  0.7437456560563466  0.9857779520873098
  0.7022979359823295  0.4527675102475880  0.2114555934362781
  0.0126493351416728  0.2654152655720752  0.7684651669924798
  0.9908372702088216  0.4890478903166205  0.4875084626990694
  0.9641322523335543  0.4650376313618654  0.9641277347317848
  0.2210042570421902  0.4932838939424761  0.7386524730138188
  0.7099555292564571  0.9661770382282072  0.2131236929016102
  0.7488556346220369  0.0164690238367912  0.7457685494965091
  0.4114091608410883  0.1563653673054879  0.1433204960406492
  0.4964522371586594  0.4588250697467933  0.4484194544359858
  0.5407022625141139  0.5524098381647461  0.0327217196851415
  0.5019022174921898 -0.0076772305091985 -0.0062925653431356
  0.7537495973909265  0.7619038139971138  0.5050052371298036
  0.8571661487168042  0.8708062847143690  0.1164594480933355
  0.1875349754744043  0.9359868173873904  0.7099821627221164
  0.5288012787831368  0.7687882847517372  0.7699033946448059
  0.0049475779422448  0.2547438020932541  0.2731961531592534
  0.9176040090929677  0.6607329833072049  0.6641604461563285
  0.4508002026953254  0.9382107627797475  0.4542311386593488
  0.2834581525474653  0.2766401744754515  0.0075218701350197
  0.7931132990045153  0.2729639712393140  0.0407962248743456
  0.2826653322028318  0.0382062926846124  0.2891848644509701
  0.9725621274831172  0.9766187149324765  0.9551275411231740
  0.7337185001718022  0.2425787813280954  0.4928840728855967
  0.4877880539098000  0.2197643045870015  0.7472760735375729
  0.0404660776531672  0.0488139265269596  0.5403683344785467
  0.3629968607945167  0.3747070233280701  0.6094193150630228
  0.2569157728527908  0.5025069566198037  0.2606416580584298
 -0.0167766080307493  0.7215323533569209  0.2409122889225871
 
  0.00000000E+00  0.00000000E+00  0.00000000E+00
  0.00000000E+00  0.00000000E+00  0.00000000E+00
  0.00000000E+00  0.00000000E+00  0.00000000E+00
  0.00000000E+00  0.00000000E+00  0.00000000E+00
  0.00000000E+00  0.00000000E+00  0.00000000E+00
  0.00000000E+00  0.00000000E+00  0.00000000E+00
  0.00000000E+00  0.00000000E+00  0.00000000E+00
  0.00000000E+00  0.00000000E+00  0.00000000E+00
  0.00000000E+00  0.00000000E+00  0.00000000E+00
  0.00000000E+00  0.00000000E+00  0.00000000E+00
  0.00000000E+00  0.00000000E+00  0.00000000E+00
  0.00000000E+00  0.00000000E+00  0.00000000E+00
  0.00000000E+00  0.00000000E+00  0.00000000E+00
  0.00000000E+00  0.00000000E+00  0.00000000E+00
  0.00000000E+00  0.00000000E+00  0.00000000E+00
  0.00000000E+00  0.00000000E+00  0.00000000E+00
  0.00000000E+00  0.00000000E+00  0.00000000E+00
  0.00000000E+00  0.00000000E+00  0.00000000E+00
  0.00000000E+00  0.00000000E+00  0.00000000E+00
  0.00000000E+00  0.00000000E+00  0.00000000E+00
  0.00000000E+00  0.00000000E+00  0.00000000E+00
  0.00000000E+00  0.00000000E+00  0.00000000E+00
  0.00000000E+00  0.00000000E+00  0.00000000E+00
  0.00000000E+00  0.00000000E+00  0.00000000E+00
  0.00000000E+00  0.00000000E+00  0.00000000E+00
  0.00000000E+00  0.00000000E+00  0.00000000E+00
  0.00000000E+00  0.00000000E+00  0.00000000E+00
  0.00000000E+00  0.00000000E+00  0.00000000E+00
  0.00000000E+00  0.00000000E+00  0.00000000E+00
  0.00000000E+00  0.00000000E+00  0.00000000E+00
  0.00000000E+00  0.00000000E+00  0.00000000E+00
  0.00000000E+00  0.00000000E+00  0.00000000E+00
