Fe2CoPd_sqsbcc                          
   3.00000000000000     
     0.9800220829291377   -0.9710750081966362    2.9275846950998936
     0.9863891568464315    2.9248405637657573   -0.9741421110793151
    -2.9576115309011684   -0.9744986895816675   -0.9711988450516787
   Fe   Co   Pd
    16     8     8
Direct
  0.2520307587001689  0.5059927664844812  0.7604059279526728
  0.7448200886059357  0.9958379338807394  0.2412373445811875
  0.7337057364808909  0.9982318901802513  0.7336533726087706
  0.5041034987950552  0.2565207735827074  0.2483725010212955
  0.4971843937834092  0.4966319069621564  0.4819161773880295
  0.5199551442885955  0.5130856636763947  0.0175848245633934
  0.5076148791627560  0.0065249881521213  0.0117452660666602
  0.7543207295488685  0.7521619936050137  0.5041964107421711
  0.7722162389120307  0.7731548281128244  0.0277953032304110
  0.2551445052395772  0.9971263821438896  0.7608897996841755
  0.5083273230984218  0.7634273768700879  0.7617142930511639
  0.9927983612770720  0.2585226284063439  0.2545153046408714
  0.0054480944334789  0.7433231807469080  0.7525004177901593
  0.4417897283844152  0.9288204770089662  0.4412594549989227
  0.2663024626608313  0.2623706631610488  0.0048720293512568
  0.7648241706502173  0.2652054186269853  0.0172616778210658
  0.7362857367082037  0.5145207683852135  0.7437167251466675
  0.5357084890797631  0.7755019579134899  0.2704484664351070
  0.2766264394279049  0.7728904387995374  0.5429967851201887
  0.2504627962198401  0.7323104735311885  0.9895812296026144
  0.7527311191997007  0.4988900230331678  0.2651712360617149
  0.0299213335305952  0.2799511350882107  0.7917515567392041
  0.0126288289440808  0.5086181036826323  0.5120875448284584
  0.9339206952438001  0.4447616080066266  0.9251658288459262
  0.2487747076617596  0.9883058498766207  0.2370106800910307
  0.9817971415167122  0.9952182048074886  0.9813002202062924
  0.7401045660568091  0.2402658552593236  0.4973791950104889
  0.4792930109583954  0.2174614479863866  0.7220730222233498
  0.0146640298266003  0.0186722385887689  0.5211727046802425
  0.2765482428415924  0.2914751066070262  0.5203204721458978
  0.2317394359224101  0.4927551519221679  0.2305412552096578
  0.9782073128401158  0.7114627649112308  0.2293629721609458
 
  0.00000000E+00  0.00000000E+00  0.00000000E+00
  0.00000000E+00  0.00000000E+00  0.00000000E+00
  0.00000000E+00  0.00000000E+00  0.00000000E+00
  0.00000000E+00  0.00000000E+00  0.00000000E+00
  0.00000000E+00  0.00000000E+00  0.00000000E+00
  0.00000000E+00  0.00000000E+00  0.00000000E+00
  0.00000000E+00  0.00000000E+00  0.00000000E+00
  0.00000000E+00  0.00000000E+00  0.00000000E+00
  0.00000000E+00  0.00000000E+00  0.00000000E+00
  0.00000000E+00  0.00000000E+00  0.00000000E+00
  0.00000000E+00  0.00000000E+00  0.00000000E+00
  0.00000000E+00  0.00000000E+00  0.00000000E+00
  0.00000000E+00  0.00000000E+00  0.00000000E+00
  0.00000000E+00  0.00000000E+00  0.00000000E+00
  0.00000000E+00  0.00000000E+00  0.00000000E+00
  0.00000000E+00  0.00000000E+00  0.00000000E+00
  0.00000000E+00  0.00000000E+00  0.00000000E+00
  0.00000000E+00  0.00000000E+00  0.00000000E+00
  0.00000000E+00  0.00000000E+00  0.00000000E+00
  0.00000000E+00  0.00000000E+00  0.00000000E+00
  0.00000000E+00  0.00000000E+00  0.00000000E+00
  0.00000000E+00  0.00000000E+00  0.00000000E+00
  0.00000000E+00  0.00000000E+00  0.00000000E+00
  0.00000000E+00  0.00000000E+00  0.00000000E+00
  0.00000000E+00  0.00000000E+00  0.00000000E+00
  0.00000000E+00  0.00000000E+00  0.00000000E+00
  0.00000000E+00  0.00000000E+00  0.00000000E+00
  0.00000000E+00  0.00000000E+00  0.00000000E+00
  0.00000000E+00  0.00000000E+00  0.00000000E+00
  0.00000000E+00  0.00000000E+00  0.00000000E+00
  0.00000000E+00  0.00000000E+00  0.00000000E+00
  0.00000000E+00  0.00000000E+00  0.00000000E+00
