FeCrMn2_SQShcp                          
   1.00000000000000     
    -2.3708690491281708   -4.3108391077988237   -0.0056490641352550
     0.0042626967969276   -0.0130725362650444   -7.9978013980814477
     7.5462609755698589   -4.5652304797628505   -0.0097702667664630
   Fe   Cr   Mn
     8     8    16
Direct
  0.2430708634617943  0.3740746650125016  0.0815467774666904
  0.7402879781733442  0.3747036021364108  0.0838573480913137
  0.0024048136645637  0.3727818300902376  0.3329239387733695
  0.9971703732242134  0.8746716990093008  0.8223018848672583
  0.9944633990042872  0.1228811836029761  0.6712568680769267
  0.4673291598256579  0.6289359333852694  0.1709575483871115
  0.9985710769080088  0.6269023488713820  0.6738992868330451
  0.2252813857376131  0.6272301865006670  0.9224191290152273
  0.7520996236930658  0.3785200657531280  0.5827530604812137
  0.5934071466253246  0.8776463549031209  0.3197009692762340
  0.7904236331625389  0.8737288839572881  0.0630212691220346
  0.0937253935659178  0.8755346582043113  0.3211050793261038
  0.7163688870727519  0.1277382650197189  0.9186779723587347
  0.9632289350113392  0.6173757163364508  0.1752118876889933
  0.2495390586472372  0.6153723511390752  0.4309429823946316
  0.7242109596247750  0.6176022834891791  0.9139133565747297
  0.5050435925860972  0.3738079895441341  0.3269092831657853
  0.2531216597346836  0.3703301490452942  0.5820709426649352
  0.4974559395399506  0.3752110466920512  0.8331895865650496
  0.0025879929644834  0.3762342999453300  0.8346546946792821
  0.2780783237071576  0.8792979495726316  0.0653508335849059
  0.2599957738420041  0.8784106216437498  0.5811479497432150
  0.4911128754304071  0.8720426026147535  0.8216691892699928
  0.7683227856204511  0.8737078202287054  0.5843764436460244
  0.4683474348987293  0.1239768604717931  0.1739408298640556
  0.7485630806554361  0.1264690622804165  0.4268951700947367
  0.9727587834605177  0.1300649588956356  0.1742713654399971
  0.2505081671867601  0.1326666326000442  0.4262686680539194
  0.4938369938393011  0.1236971850505243  0.6669861927296394
  0.2194945255195965  0.1247007194680805  0.9185480680153505
  0.7414160704315690  0.6285342796598787  0.4260103843819618
  0.4977733131804353  0.6251477948759816  0.6732210393675312
 
  0.00000000E+00  0.00000000E+00  0.00000000E+00
  0.00000000E+00  0.00000000E+00  0.00000000E+00
  0.00000000E+00  0.00000000E+00  0.00000000E+00
  0.00000000E+00  0.00000000E+00  0.00000000E+00
  0.00000000E+00  0.00000000E+00  0.00000000E+00
  0.00000000E+00  0.00000000E+00  0.00000000E+00
  0.00000000E+00  0.00000000E+00  0.00000000E+00
  0.00000000E+00  0.00000000E+00  0.00000000E+00
  0.00000000E+00  0.00000000E+00  0.00000000E+00
  0.00000000E+00  0.00000000E+00  0.00000000E+00
  0.00000000E+00  0.00000000E+00  0.00000000E+00
  0.00000000E+00  0.00000000E+00  0.00000000E+00
  0.00000000E+00  0.00000000E+00  0.00000000E+00
  0.00000000E+00  0.00000000E+00  0.00000000E+00
  0.00000000E+00  0.00000000E+00  0.00000000E+00
  0.00000000E+00  0.00000000E+00  0.00000000E+00
  0.00000000E+00  0.00000000E+00  0.00000000E+00
  0.00000000E+00  0.00000000E+00  0.00000000E+00
  0.00000000E+00  0.00000000E+00  0.00000000E+00
  0.00000000E+00  0.00000000E+00  0.00000000E+00
  0.00000000E+00  0.00000000E+00  0.00000000E+00
  0.00000000E+00  0.00000000E+00  0.00000000E+00
  0.00000000E+00  0.00000000E+00  0.00000000E+00
  0.00000000E+00  0.00000000E+00  0.00000000E+00
  0.00000000E+00  0.00000000E+00  0.00000000E+00
  0.00000000E+00  0.00000000E+00  0.00000000E+00
  0.00000000E+00  0.00000000E+00  0.00000000E+00
  0.00000000E+00  0.00000000E+00  0.00000000E+00
  0.00000000E+00  0.00000000E+00  0.00000000E+00
  0.00000000E+00  0.00000000E+00  0.00000000E+00
  0.00000000E+00  0.00000000E+00  0.00000000E+00
  0.00000000E+00  0.00000000E+00  0.00000000E+00
