Ni2CoPd_32sqshcp                        
   2.80000000000000     
    -0.9297243278538433   -1.6091032592810621    0.0030477777277150
     0.0010532760021279    0.0051869436464147   -2.9937148896723529
     2.7493806774243246   -1.5860963980370133    0.0018008662089371
   Ni   Co   Pd
    16     8     8
Direct
  0.5043611537500895  0.3710598679443061  0.3280927039985657
  0.2493861171125379  0.3672182229479853  0.5913447584204847
  0.4809455146354207  0.3753479605646779  0.8356988956711805
  0.0159914311343403  0.3771630882752262  0.8393226162222666
  0.2490802094984755  0.8772836032114882  0.0751276317645417
  0.2477270897144436  0.8763275359022299  0.5928652622725161
  0.4871169936950402  0.8752818009227097  0.8278775399386240
  0.7513983447213021  0.8740197598153274  0.5962908775587220
  0.4928548588614202  0.1336703751334417  0.1667797879288465
  0.7506440320936588  0.1337903019215015  0.4173098561399446
  0.0067054330174691  0.1354898164874427  0.1650715640738686
  0.2489555001800568  0.1388097582207522  0.4178424421817704
  0.4898869262683163  0.1197767845568793  0.6592480839626791
  0.2490759379058894  0.1246112671103191  0.9124422611099718
  0.7504758027526117  0.6210531286194847  0.4204423287064201
  0.4912882842204452  0.6292552521507895  0.6685488425433908
  0.2599169254592493  0.3718578233312453  0.0809777742450785
  0.7432830631956162  0.3705249603852612  0.0868927632332739
  0.9969477882211817  0.3657803045771702  0.3301600746101219
  0.0117023698054916  0.8747420401456176  0.8292162702170232
  0.0109970092079629  0.1179425829682528  0.6606035191098668
  0.5002707388507738  0.6128383850294932  0.1640790299280060
  0.0108691093698152  0.6311277783202132  0.6703152176896325
  0.2536391828376580  0.6263504500922702  0.9120172521533423
  0.7508651670698281  0.3759016277363483  0.5906179882603073
  0.4981103311297689  0.8802292671162905  0.3405704536235982
  0.7456419728484549  0.8796880500570217  0.0778270013086190
  0.0003148417157821  0.8847501297082213  0.3423743933908876
  0.7490893061154266  0.1324995394061582  0.9043477079848754
  0.0040913686326911  0.6157313591748073  0.1648308814831266
  0.2537483157508806  0.6111792295301519  0.4239131662484510
  0.7446188802279013  0.6186979486369240  0.9069510540200111
 
  0.00000000E+00  0.00000000E+00  0.00000000E+00
  0.00000000E+00  0.00000000E+00  0.00000000E+00
  0.00000000E+00  0.00000000E+00  0.00000000E+00
  0.00000000E+00  0.00000000E+00  0.00000000E+00
  0.00000000E+00  0.00000000E+00  0.00000000E+00
  0.00000000E+00  0.00000000E+00  0.00000000E+00
  0.00000000E+00  0.00000000E+00  0.00000000E+00
  0.00000000E+00  0.00000000E+00  0.00000000E+00
  0.00000000E+00  0.00000000E+00  0.00000000E+00
  0.00000000E+00  0.00000000E+00  0.00000000E+00
  0.00000000E+00  0.00000000E+00  0.00000000E+00
  0.00000000E+00  0.00000000E+00  0.00000000E+00
  0.00000000E+00  0.00000000E+00  0.00000000E+00
  0.00000000E+00  0.00000000E+00  0.00000000E+00
  0.00000000E+00  0.00000000E+00  0.00000000E+00
  0.00000000E+00  0.00000000E+00  0.00000000E+00
  0.00000000E+00  0.00000000E+00  0.00000000E+00
  0.00000000E+00  0.00000000E+00  0.00000000E+00
  0.00000000E+00  0.00000000E+00  0.00000000E+00
  0.00000000E+00  0.00000000E+00  0.00000000E+00
  0.00000000E+00  0.00000000E+00  0.00000000E+00
  0.00000000E+00  0.00000000E+00  0.00000000E+00
  0.00000000E+00  0.00000000E+00  0.00000000E+00
  0.00000000E+00  0.00000000E+00  0.00000000E+00
  0.00000000E+00  0.00000000E+00  0.00000000E+00
  0.00000000E+00  0.00000000E+00  0.00000000E+00
  0.00000000E+00  0.00000000E+00  0.00000000E+00
  0.00000000E+00  0.00000000E+00  0.00000000E+00
  0.00000000E+00  0.00000000E+00  0.00000000E+00
  0.00000000E+00  0.00000000E+00  0.00000000E+00
  0.00000000E+00  0.00000000E+00  0.00000000E+00
  0.00000000E+00  0.00000000E+00  0.00000000E+00
