CrCoMn2_32sqshcp                        
   2.80000000000000     
    -0.8982278693299846   -1.5179961643373732    0.0038225818825287
     0.0112707018576715    0.0007852540025601   -2.8692047811226531
     2.7071878239983920   -1.5248272876347104   -0.0101089358708750
   Cr   Co   Mn
     8     8    16
Direct
  0.2106432467762693  0.3640515476017483  0.0842337097328200
  0.7045886341377948  0.3774196023039316  0.0752422485959138
  0.9926798226636460  0.3841061308733927  0.3409159641776589
  0.9819653236741316  0.8787116046505864  0.8303977753371685
  0.0148257571218462  0.1417846402775105  0.6686268475081857
  0.5083968353791293  0.6342861564805686  0.1743452904863241
  0.0198808545564163  0.6113464388102409  0.6710117335463324
  0.2753189872500763  0.6168516290004653  0.9284550969254075
  0.7463069028912414  0.3752780207897453  0.5799159114965984
  0.5005386802462968  0.8763301560849301  0.3351743422547103
  0.7457062897005650  0.8745214647973470  0.0790447450455358
  0.9978981520938787  0.8743178792298525  0.3326090941455704
  0.7501431117020696  0.1249637737351646  0.9199628215010649
  0.9971980817671489  0.6276982046895455  0.1694233138649947
  0.2510518209244708  0.6277252402789006  0.4153807523809590
  0.7643354137188642  0.6277989216808596  0.9190184683604127
  0.5027061634182473  0.3772957762526504  0.3336204823706706
  0.2558351579540947  0.3768539659346443  0.5818455714123107
  0.4971309173940387  0.3724100301202477  0.8227678847499935
  0.0001405814476569  0.3739963351837386  0.8299552772442694
  0.2412109075415390  0.8807052581187910  0.0854044892223968
  0.2554070725134622  0.8772789533334456  0.5754773052750211
  0.4829375140377842  0.8710040247464192  0.8309123532139381
  0.7685333130265194  0.8774286211344771  0.5805648384884917
  0.5108672038240119  0.1155125753697926  0.1680294104667949
  0.7501092336215160  0.1208322364914910  0.4189100611395143
  0.0004015602052588  0.1167884834941840  0.1661939725582525
  0.2506979625056948  0.1223758318903732  0.4095554601047521
  0.5044875215773466  0.1199435147383890  0.6702807112714503
  0.2587410977452929  0.1218795663976184  0.9131005817743164
  0.7529571176177647  0.6292671353856751  0.4214682949902066
  0.5063587609659197  0.6292362801232525  0.6681551903579711
 
  0.00000000E+00  0.00000000E+00  0.00000000E+00
  0.00000000E+00  0.00000000E+00  0.00000000E+00
  0.00000000E+00  0.00000000E+00  0.00000000E+00
  0.00000000E+00  0.00000000E+00  0.00000000E+00
  0.00000000E+00  0.00000000E+00  0.00000000E+00
  0.00000000E+00  0.00000000E+00  0.00000000E+00
  0.00000000E+00  0.00000000E+00  0.00000000E+00
  0.00000000E+00  0.00000000E+00  0.00000000E+00
  0.00000000E+00  0.00000000E+00  0.00000000E+00
  0.00000000E+00  0.00000000E+00  0.00000000E+00
  0.00000000E+00  0.00000000E+00  0.00000000E+00
  0.00000000E+00  0.00000000E+00  0.00000000E+00
  0.00000000E+00  0.00000000E+00  0.00000000E+00
  0.00000000E+00  0.00000000E+00  0.00000000E+00
  0.00000000E+00  0.00000000E+00  0.00000000E+00
  0.00000000E+00  0.00000000E+00  0.00000000E+00
  0.00000000E+00  0.00000000E+00  0.00000000E+00
  0.00000000E+00  0.00000000E+00  0.00000000E+00
  0.00000000E+00  0.00000000E+00  0.00000000E+00
  0.00000000E+00  0.00000000E+00  0.00000000E+00
  0.00000000E+00  0.00000000E+00  0.00000000E+00
  0.00000000E+00  0.00000000E+00  0.00000000E+00
  0.00000000E+00  0.00000000E+00  0.00000000E+00
  0.00000000E+00  0.00000000E+00  0.00000000E+00
  0.00000000E+00  0.00000000E+00  0.00000000E+00
  0.00000000E+00  0.00000000E+00  0.00000000E+00
  0.00000000E+00  0.00000000E+00  0.00000000E+00
  0.00000000E+00  0.00000000E+00  0.00000000E+00
  0.00000000E+00  0.00000000E+00  0.00000000E+00
  0.00000000E+00  0.00000000E+00  0.00000000E+00
  0.00000000E+00  0.00000000E+00  0.00000000E+00
  0.00000000E+00  0.00000000E+00  0.00000000E+00
