FeNiPd2_32sqshcp                        
   2.80000000000000     
    -0.9686878366213520   -1.6599696432489159    0.0011231875991902
    -0.0008140327458927    0.0026000100924565   -3.1130414433548466
     2.8683420958009118   -1.6381008127873848    0.0021338630071772
   Fe   Ni   Pd
     8     8    16
Direct
  0.2458085886088063  0.3774713009064828  0.0818845298729384
  0.7552241478124223  0.3812808513614035  0.0820025131430164
 -0.0034873375448323  0.3819668321444416  0.3312945153096249
  0.9896912773281591  0.8668015132169625  0.8458343425319885
 -0.0061847022205101  0.1343425718244546  0.6621978131488108
  0.5127823264460675  0.6304083506788112  0.1632816618804247
  0.0011841395319657  0.6259366878101839  0.6722137720822404
  0.2490896399925568  0.6232953450658126  0.9254550957481231
  0.7470367087682253  0.3780264022607593  0.5775367001892467
  0.5090372601750417  0.8698470552193687  0.3314861384020045
  0.7542026047044511  0.8610198472249583  0.0924639398213741
  0.9948356859741490  0.8709713766777244  0.3314264140762249
  0.7537030442566302  0.1172081731823805  0.9105633942035694
  0.0012702790376128  0.6130473293183437  0.1646796128085164
  0.2546182768373292  0.6341596236267596  0.4007589691701540
  0.7600800550832428  0.6267913795789788  0.9291265360334993
  0.4935641934122836  0.3861758204352571  0.3235986150704886
  0.2346586250465805  0.3841394209336989  0.5744360848172266
  0.4991774354142751  0.3785698159324729  0.8468998277088021
  0.9903616511527827  0.3830406248493185  0.8361435801110633
  0.2401931146443122  0.8598361022197336  0.0951295124240244
  0.2470130657414867  0.8684316959928219  0.5848514341961869
  0.5061183144589612  0.8675396608188870  0.8475734010219481
  0.7552373960147298  0.8768394270757091  0.5883750289854568
  0.5039343969629428  0.1253814481021848  0.1534432631959259
  0.7535515214388505  0.1290095730749128  0.4144559388737946
 -0.0048041523223589  0.1311835242763472  0.1593955607318555
  0.2497725106199176  0.1193279394720631  0.4121326216952175
  0.5068198239176364  0.1330593940535892  0.6682797213680797
  0.2344322659924041  0.1180133927695917  0.9068123966592023
  0.7647588634530474  0.6271434048505916  0.4133768429945127
  0.5063189792608318  0.6197341150449931  0.6728902217244593
 
  0.00000000E+00  0.00000000E+00  0.00000000E+00
  0.00000000E+00  0.00000000E+00  0.00000000E+00
  0.00000000E+00  0.00000000E+00  0.00000000E+00
  0.00000000E+00  0.00000000E+00  0.00000000E+00
  0.00000000E+00  0.00000000E+00  0.00000000E+00
  0.00000000E+00  0.00000000E+00  0.00000000E+00
  0.00000000E+00  0.00000000E+00  0.00000000E+00
  0.00000000E+00  0.00000000E+00  0.00000000E+00
  0.00000000E+00  0.00000000E+00  0.00000000E+00
  0.00000000E+00  0.00000000E+00  0.00000000E+00
  0.00000000E+00  0.00000000E+00  0.00000000E+00
  0.00000000E+00  0.00000000E+00  0.00000000E+00
  0.00000000E+00  0.00000000E+00  0.00000000E+00
  0.00000000E+00  0.00000000E+00  0.00000000E+00
  0.00000000E+00  0.00000000E+00  0.00000000E+00
  0.00000000E+00  0.00000000E+00  0.00000000E+00
  0.00000000E+00  0.00000000E+00  0.00000000E+00
  0.00000000E+00  0.00000000E+00  0.00000000E+00
  0.00000000E+00  0.00000000E+00  0.00000000E+00
  0.00000000E+00  0.00000000E+00  0.00000000E+00
  0.00000000E+00  0.00000000E+00  0.00000000E+00
  0.00000000E+00  0.00000000E+00  0.00000000E+00
  0.00000000E+00  0.00000000E+00  0.00000000E+00
  0.00000000E+00  0.00000000E+00  0.00000000E+00
  0.00000000E+00  0.00000000E+00  0.00000000E+00
  0.00000000E+00  0.00000000E+00  0.00000000E+00
  0.00000000E+00  0.00000000E+00  0.00000000E+00
  0.00000000E+00  0.00000000E+00  0.00000000E+00
  0.00000000E+00  0.00000000E+00  0.00000000E+00
  0.00000000E+00  0.00000000E+00  0.00000000E+00
  0.00000000E+00  0.00000000E+00  0.00000000E+00
  0.00000000E+00  0.00000000E+00  0.00000000E+00
