Ternary_NiCoMnsqshcp                    
   2.60000000000000     
    -1.4466326454029492   -2.5177435822839569   -0.0007354280592236
    -1.4462391469300124    2.5175475433457741   -0.0050516911875703
    -0.0062141550514225    0.0026645883268406   -3.1301403503018732
   Ni   Co   Mn
    12    12    12
Direct
  0.4445692201459160  0.5548446202920694  0.3736546243881760
  0.4413961880209117  0.2215579034358227  0.3755703645779227
  0.7756997675802517  0.5561223020944782  0.3760032696175030
  0.7786208641766059  0.2235641767517682  0.3789704776480604
  0.7783027938353489  0.8893933465902883  0.3733212816668905
  0.4389912287310342  0.8792236808894713  0.8765238743555015
  0.5562023561727324  0.4482983825638087  0.1233640829314747
  0.2210258736676969  0.1159781476384003  0.1207063322429392
  0.8930589007894648  0.1128760321609755  0.1238686698855946
  0.5538929121875794  0.4426919835829545  0.6239819756017715
  0.2229675855312170  0.4457583647500082  0.6274372660114175
  0.8883280588703623  0.1077361388493045  0.6247849457873328
  0.4491674074518068  0.8847205619509457  0.3760342468385570
  0.1129404489504203  0.5553071452120635  0.3745555355052578
  0.4407979796863947  0.5492935860329105  0.8732937803749798
  0.4433814370347503  0.2238397139437703  0.8743589899829237
  0.1117275972242527  0.2220546395353210  0.8702167291681128
  0.1126639232868250  0.8891830318796222  0.8731695727085889
  0.5589737413875520  0.7785061213366683  0.1266073730378222
  0.8927079262112881  0.7797339739701177  0.1201000138967864
  0.5553815756243293  0.7728300430873851  0.6221563708418415
  0.2174092491876662  0.1069894910054125  0.6321417732993133
  0.2232267839849041  0.7766172890078101  0.6310347540791045
  0.8926904625264447  0.7852605497654368  0.6260528599309868
  0.1115534130283407  0.2267024243622051  0.3777068744737760
  0.1140932604629281  0.8815399956130401  0.3752368103159623
  0.1080236391428391  0.5512634506097293  0.8722736480860304
  0.7709923846937902  0.5583600093807201  0.8712399857663989
  0.7724364494166329  0.2115911965836571  0.8708735205395427
  0.7748217748064884  0.8848807411609459  0.8774414553345495
  0.5579788689289861  0.1145340017870710  0.1248274523885811
  0.2256876684022640  0.4578272453919376  0.1140912602198202
  0.2296999283983340  0.7890632482989920  0.1293517476037915
  0.8894645247901932  0.4446811771846256  0.1347396472049067
  0.5464899236349547  0.1032717327419725  0.6266402670591109
  0.8946338820284915  0.4539035505582892  0.6276681666286719
 
  0.00000000E+00  0.00000000E+00  0.00000000E+00
  0.00000000E+00  0.00000000E+00  0.00000000E+00
  0.00000000E+00  0.00000000E+00  0.00000000E+00
  0.00000000E+00  0.00000000E+00  0.00000000E+00
  0.00000000E+00  0.00000000E+00  0.00000000E+00
  0.00000000E+00  0.00000000E+00  0.00000000E+00
  0.00000000E+00  0.00000000E+00  0.00000000E+00
  0.00000000E+00  0.00000000E+00  0.00000000E+00
  0.00000000E+00  0.00000000E+00  0.00000000E+00
  0.00000000E+00  0.00000000E+00  0.00000000E+00
  0.00000000E+00  0.00000000E+00  0.00000000E+00
  0.00000000E+00  0.00000000E+00  0.00000000E+00
  0.00000000E+00  0.00000000E+00  0.00000000E+00
  0.00000000E+00  0.00000000E+00  0.00000000E+00
  0.00000000E+00  0.00000000E+00  0.00000000E+00
  0.00000000E+00  0.00000000E+00  0.00000000E+00
  0.00000000E+00  0.00000000E+00  0.00000000E+00
  0.00000000E+00  0.00000000E+00  0.00000000E+00
  0.00000000E+00  0.00000000E+00  0.00000000E+00
  0.00000000E+00  0.00000000E+00  0.00000000E+00
  0.00000000E+00  0.00000000E+00  0.00000000E+00
  0.00000000E+00  0.00000000E+00  0.00000000E+00
  0.00000000E+00  0.00000000E+00  0.00000000E+00
  0.00000000E+00  0.00000000E+00  0.00000000E+00
  0.00000000E+00  0.00000000E+00  0.00000000E+00
  0.00000000E+00  0.00000000E+00  0.00000000E+00
  0.00000000E+00  0.00000000E+00  0.00000000E+00
  0.00000000E+00  0.00000000E+00  0.00000000E+00
  0.00000000E+00  0.00000000E+00  0.00000000E+00
  0.00000000E+00  0.00000000E+00  0.00000000E+00
  0.00000000E+00  0.00000000E+00  0.00000000E+00
  0.00000000E+00  0.00000000E+00  0.00000000E+00
  0.00000000E+00  0.00000000E+00  0.00000000E+00
  0.00000000E+00  0.00000000E+00  0.00000000E+00
  0.00000000E+00  0.00000000E+00  0.00000000E+00
  0.00000000E+00  0.00000000E+00  0.00000000E+00
