Ternary_CrCoMnsqshcp                    
   2.60000000000000     
    -1.4388110961338614   -2.4587173273782201   -0.0085591882028663
    -1.4591664360849921    2.4702550864214921    0.0118551973955894
     0.0035371080328235   -0.0126599820465246   -3.0968549740426572
   Cr   Co   Mn
    12    12    12
Direct
  0.4521676007893132  0.5512059056854404  0.3692542783230108
  0.4240686619966383  0.2238813021809309  0.3817285911893640
  0.7838536239715631  0.5704179295642494  0.3723896025957572
  0.7668679415382526  0.2422997449459949  0.3791991190436549
  0.7857217223250464  0.9070858294965295  0.3735287868784949
  0.4482539688341539  0.8919173629955547  0.8736676000553698
  0.5686810878905314  0.4485689499120957  0.1034088220629345
  0.2164424547110209  0.1014430804722817  0.1197370883696626
  0.8750616765051903  0.1073228112881058  0.1057819399995300
  0.5705500893519538  0.4390118659864345  0.6413742049315175
  0.2229419072258492  0.4410698632324641  0.6248786974590161
  0.8794228729765501  0.1006536532766625  0.6457467730742068
  0.4427324844646547  0.8842915461862105  0.3753613603297016
  0.1180295945821414  0.5608665278753020  0.3745744153966088
  0.4440573900945559  0.5590648386211179  0.8760561772261966
  0.4416829855948288  0.2177853567363939  0.8721922442522637
  0.1143712957006037  0.2242711122407600  0.8745326362436429
  0.1105259881793103  0.8853851216502228  0.8761796826723853
  0.5546852723482611  0.7758997863586121  0.1267341203144052
  0.8924246278593820  0.7824898701965642  0.1258489524690792
  0.5552302580905711  0.7715732669428718  0.6226987108999302
  0.2147066183395029  0.1041749168299975  0.6267649779799118
  0.2235151462050230  0.7754312929414697  0.6252918016321373
  0.8928563710975607  0.7795555418200220  0.6228990897676151
  0.0942697681775900  0.2216759538059698  0.3775436821153291
  0.1181505881087997  0.8901049435397828  0.3782558819226692
  0.1122680302735851  0.5517724318988683  0.8767991990821790
  0.7836266729191603  0.5595042296575088  0.8747439721796529
  0.7790705953597503  0.2282697521246210  0.8746935356634538
  0.7731279066660942  0.8793164821677626  0.8757438623839181
  0.5469228333830100  0.1064636766776364  0.1309090646196950
  0.2221852903016274  0.4414099691474787  0.1237217907864669
  0.2247198233599901  0.7793234849599350  0.1295515359015440
  0.8962698738275821  0.4494796627506797  0.1245451689314376
  0.5540911212587133  0.1022197137141089  0.6189800370263615
  0.8964458556916390  0.4447922221193673  0.6246825962209043
 
  0.00000000E+00  0.00000000E+00  0.00000000E+00
  0.00000000E+00  0.00000000E+00  0.00000000E+00
  0.00000000E+00  0.00000000E+00  0.00000000E+00
  0.00000000E+00  0.00000000E+00  0.00000000E+00
  0.00000000E+00  0.00000000E+00  0.00000000E+00
  0.00000000E+00  0.00000000E+00  0.00000000E+00
  0.00000000E+00  0.00000000E+00  0.00000000E+00
  0.00000000E+00  0.00000000E+00  0.00000000E+00
  0.00000000E+00  0.00000000E+00  0.00000000E+00
  0.00000000E+00  0.00000000E+00  0.00000000E+00
  0.00000000E+00  0.00000000E+00  0.00000000E+00
  0.00000000E+00  0.00000000E+00  0.00000000E+00
  0.00000000E+00  0.00000000E+00  0.00000000E+00
  0.00000000E+00  0.00000000E+00  0.00000000E+00
  0.00000000E+00  0.00000000E+00  0.00000000E+00
  0.00000000E+00  0.00000000E+00  0.00000000E+00
  0.00000000E+00  0.00000000E+00  0.00000000E+00
  0.00000000E+00  0.00000000E+00  0.00000000E+00
  0.00000000E+00  0.00000000E+00  0.00000000E+00
  0.00000000E+00  0.00000000E+00  0.00000000E+00
  0.00000000E+00  0.00000000E+00  0.00000000E+00
  0.00000000E+00  0.00000000E+00  0.00000000E+00
  0.00000000E+00  0.00000000E+00  0.00000000E+00
  0.00000000E+00  0.00000000E+00  0.00000000E+00
  0.00000000E+00  0.00000000E+00  0.00000000E+00
  0.00000000E+00  0.00000000E+00  0.00000000E+00
  0.00000000E+00  0.00000000E+00  0.00000000E+00
  0.00000000E+00  0.00000000E+00  0.00000000E+00
  0.00000000E+00  0.00000000E+00  0.00000000E+00
  0.00000000E+00  0.00000000E+00  0.00000000E+00
  0.00000000E+00  0.00000000E+00  0.00000000E+00
  0.00000000E+00  0.00000000E+00  0.00000000E+00
  0.00000000E+00  0.00000000E+00  0.00000000E+00
  0.00000000E+00  0.00000000E+00  0.00000000E+00
  0.00000000E+00  0.00000000E+00  0.00000000E+00
  0.00000000E+00  0.00000000E+00  0.00000000E+00
