Ternary_FeNiPdsqshcp                    
   2.60000000000000     
    -1.5191191534693724   -2.6174589271804543    0.0105724636407175
    -1.5229771993956045    2.6196934842980064   -0.0060495758058709
     0.0050477140504886    0.0106949780376913   -3.3110268346746778
   Fe   Ni   Pd
    12    12    12
Direct
  0.4468852319390504  0.5650907824402513  0.3765428115375209
  0.4461587693018509  0.2369779639704877  0.3744429324273288
  0.7591144850008846  0.5577728657224937  0.3767456783135192
  0.7709234305248964  0.2070534040400346  0.3776434342762998
  0.7716515322198301  0.8902290022584500  0.3772468391927582
  0.4406609902919050  0.8857733366714811  0.8698838779991513
  0.5589916259099016  0.4511442065633193  0.1161167218202212
  0.2110963968506607  0.1000744599603563  0.1110419937286554
  0.8872267406283511  0.1009799448789965  0.1227108383931805
  0.5472556115568745  0.4462421055696345  0.6321530032162643
  0.2348453414426699  0.4512813844459600  0.6269594273811899
  0.8883621497129068  0.1012147750958725  0.6307057128558330
  0.4498414934783508  0.8820019829528898  0.3780683647540633
  0.1290688004948551  0.5641614841786002  0.3811949153642722
  0.4449380705141547  0.5548406887017574  0.8680445996144629
  0.4336031389666747  0.2188380991823645  0.8754844186379089
  0.1183650847410063  0.2192321029329085  0.8693185975222142
  0.1200877785087617  0.8971856831731028  0.8662704423423069
  0.5637217054419056  0.7765383950036244  0.1337822827455637
  0.8843457511206244  0.7830922091815372  0.1348823172698977
  0.5547278358684102  0.7727876348002914  0.6209840776067125
  0.2179016470638614  0.1153195308862858  0.6326205856999529
  0.2249936148074012  0.7778876924793512  0.6242371927495941
  0.8858190898762341  0.7832004338595252  0.6196983910032667
  0.1128818367646461  0.2278723343350360  0.3821954618906268
  0.1117209869917842  0.8874895032314074  0.3820825123335306
  0.1224887718137244  0.5590800789902894  0.8656517370179601
  0.7783247596631623  0.5568197338393611  0.8739112780402306
  0.7760125840665748  0.2190300103222099  0.8749534568514992
  0.7746727539453733  0.8840555937554906  0.8766861020007565
  0.5517119460152362  0.1098427389103039  0.1326497859416282
  0.2324984451470543  0.4374415209161343  0.1213306829341989
  0.2218069729246027  0.7799040514076322  0.1231111912423477
  0.8892121820895174  0.4459470291992468  0.1452658021981299
  0.5444840863783186  0.1052067019661482  0.6181701781557727
  0.8935983579379838  0.4483905341771703  0.6072123549411729
 
  0.00000000E+00  0.00000000E+00  0.00000000E+00
  0.00000000E+00  0.00000000E+00  0.00000000E+00
  0.00000000E+00  0.00000000E+00  0.00000000E+00
  0.00000000E+00  0.00000000E+00  0.00000000E+00
  0.00000000E+00  0.00000000E+00  0.00000000E+00
  0.00000000E+00  0.00000000E+00  0.00000000E+00
  0.00000000E+00  0.00000000E+00  0.00000000E+00
  0.00000000E+00  0.00000000E+00  0.00000000E+00
  0.00000000E+00  0.00000000E+00  0.00000000E+00
  0.00000000E+00  0.00000000E+00  0.00000000E+00
  0.00000000E+00  0.00000000E+00  0.00000000E+00
  0.00000000E+00  0.00000000E+00  0.00000000E+00
  0.00000000E+00  0.00000000E+00  0.00000000E+00
  0.00000000E+00  0.00000000E+00  0.00000000E+00
  0.00000000E+00  0.00000000E+00  0.00000000E+00
  0.00000000E+00  0.00000000E+00  0.00000000E+00
  0.00000000E+00  0.00000000E+00  0.00000000E+00
  0.00000000E+00  0.00000000E+00  0.00000000E+00
  0.00000000E+00  0.00000000E+00  0.00000000E+00
  0.00000000E+00  0.00000000E+00  0.00000000E+00
  0.00000000E+00  0.00000000E+00  0.00000000E+00
  0.00000000E+00  0.00000000E+00  0.00000000E+00
  0.00000000E+00  0.00000000E+00  0.00000000E+00
  0.00000000E+00  0.00000000E+00  0.00000000E+00
  0.00000000E+00  0.00000000E+00  0.00000000E+00
  0.00000000E+00  0.00000000E+00  0.00000000E+00
  0.00000000E+00  0.00000000E+00  0.00000000E+00
  0.00000000E+00  0.00000000E+00  0.00000000E+00
  0.00000000E+00  0.00000000E+00  0.00000000E+00
  0.00000000E+00  0.00000000E+00  0.00000000E+00
  0.00000000E+00  0.00000000E+00  0.00000000E+00
  0.00000000E+00  0.00000000E+00  0.00000000E+00
  0.00000000E+00  0.00000000E+00  0.00000000E+00
  0.00000000E+00  0.00000000E+00  0.00000000E+00
  0.00000000E+00  0.00000000E+00  0.00000000E+00
  0.00000000E+00  0.00000000E+00  0.00000000E+00
