Ternary_FeNiCrsqshcp                    
   2.60000000000000     
    -1.4375047777592669   -2.5055971238254906    0.0004311486240490
    -1.4428412047733512    2.5086723704600846    0.0018343581136979
     0.0024515185274868   -0.0008638864104839   -3.1147770489017890
   Fe   Ni   Cr
    12    12    12
Direct
  0.4475615667509518  0.5548852324897892  0.3703920227262701
  0.4441378282595399  0.2239309229933340  0.3726413409858019
  0.7761214157714921  0.5544159663863749  0.3734982336525604
  0.7771607549756249  0.2224432075282974  0.3758784883641472
  0.7803108841728722  0.8948413828661853  0.3724940349576214
  0.4507527645954438  0.8927952268808195  0.8734481393123003
  0.5554554783029402  0.4386025874323605  0.1257217733330511
  0.2204751538092047  0.1083333808574168  0.1278324651832450
  0.8950461332330553  0.1139164612072082  0.1288034015608373
  0.5587568915663402  0.4362515814635087  0.6241784535311089
  0.2162401145426992  0.4382543748233531  0.6264361911841437
  0.8844231454304762  0.1087317198616498  0.6235846596831742
  0.4460913479062223  0.8868572634456386  0.3724559325062441
  0.1183769252626718  0.5588521621811722  0.3757459637398277
  0.4514634505987540  0.5584872827043339  0.8754448925009521
  0.4426518319375985  0.2223488369305590  0.8765189690947855
  0.1123686750155328  0.2239617245181614  0.8767906279266199
  0.1060543646378079  0.8854944540454919  0.8768559649588463
  0.5542681851535107  0.7774698334015434  0.1239287912128978
  0.8872156601404910  0.7807207077795882  0.1232549445792498
  0.5537192002459066  0.7744422709618315  0.6232893935777837
  0.2195080467710244  0.1087936639426120  0.6224942899237303
  0.2231700555797475  0.7766145425624837  0.6258727897307638
  0.8845155922947840  0.7762746778317648  0.6254135629030412
  0.1103217843198570  0.2277023814126066  0.3787426546975255
  0.1101728257008154  0.8886327354304577  0.3737308814627187
  0.1248985671318508  0.5623204436894732  0.8739715280868501
  0.7760713989483469  0.5472138165099619  0.8782317981336766
  0.7840658889859176  0.2331734020230381  0.8791071527381602
  0.7759139941216111  0.9026165878297798  0.8741144592206701
  0.5527394172440178  0.1110563726368619  0.1271784035469259
  0.2242966805728704  0.4387306389360537  0.1248415937919770
  0.2139719881598899  0.7746856463654497  0.1218917844468036
  0.8805249199041186  0.4416920425971740  0.1400873864324876
  0.5535344466809974  0.1102598478365182  0.6250573513722383
  0.8876426212750225  0.4441966196371193  0.6100696789409698
 
  0.00000000E+00  0.00000000E+00  0.00000000E+00
  0.00000000E+00  0.00000000E+00  0.00000000E+00
  0.00000000E+00  0.00000000E+00  0.00000000E+00
  0.00000000E+00  0.00000000E+00  0.00000000E+00
  0.00000000E+00  0.00000000E+00  0.00000000E+00
  0.00000000E+00  0.00000000E+00  0.00000000E+00
  0.00000000E+00  0.00000000E+00  0.00000000E+00
  0.00000000E+00  0.00000000E+00  0.00000000E+00
  0.00000000E+00  0.00000000E+00  0.00000000E+00
  0.00000000E+00  0.00000000E+00  0.00000000E+00
  0.00000000E+00  0.00000000E+00  0.00000000E+00
  0.00000000E+00  0.00000000E+00  0.00000000E+00
  0.00000000E+00  0.00000000E+00  0.00000000E+00
  0.00000000E+00  0.00000000E+00  0.00000000E+00
  0.00000000E+00  0.00000000E+00  0.00000000E+00
  0.00000000E+00  0.00000000E+00  0.00000000E+00
  0.00000000E+00  0.00000000E+00  0.00000000E+00
  0.00000000E+00  0.00000000E+00  0.00000000E+00
  0.00000000E+00  0.00000000E+00  0.00000000E+00
  0.00000000E+00  0.00000000E+00  0.00000000E+00
  0.00000000E+00  0.00000000E+00  0.00000000E+00
  0.00000000E+00  0.00000000E+00  0.00000000E+00
  0.00000000E+00  0.00000000E+00  0.00000000E+00
  0.00000000E+00  0.00000000E+00  0.00000000E+00
  0.00000000E+00  0.00000000E+00  0.00000000E+00
  0.00000000E+00  0.00000000E+00  0.00000000E+00
  0.00000000E+00  0.00000000E+00  0.00000000E+00
  0.00000000E+00  0.00000000E+00  0.00000000E+00
  0.00000000E+00  0.00000000E+00  0.00000000E+00
  0.00000000E+00  0.00000000E+00  0.00000000E+00
  0.00000000E+00  0.00000000E+00  0.00000000E+00
  0.00000000E+00  0.00000000E+00  0.00000000E+00
  0.00000000E+00  0.00000000E+00  0.00000000E+00
  0.00000000E+00  0.00000000E+00  0.00000000E+00
  0.00000000E+00  0.00000000E+00  0.00000000E+00
  0.00000000E+00  0.00000000E+00  0.00000000E+00
