Ternary_NiCrMnsqshcp                    
   2.60000000000000     
    -1.4085563213956545   -2.5156769782987638    0.0000990316487806
    -1.4649681851839522    2.5479876362134886    0.0051770652037534
     0.0057525854432982   -0.0031107753461165   -3.1175655450697151
   Ni   Cr   Mn
    12    12    12
Direct
  0.4480531365430211  0.5537718575412752  0.3764397782712929
  0.4510264747247504  0.2265344831650616  0.3735501259252221
  0.7863312046986837  0.5586945230356596  0.3765109837715286
  0.7903899165924899  0.2335618842330145  0.3740156958331657
  0.7867434960972850  0.8915305062091251  0.3749119142045479
  0.4491317900565747  0.8925727106552942  0.8745430273027652
  0.5535850268183133  0.4411342015092294  0.1226387539353905
  0.2196472720603000  0.1117911144425609  0.1272269829074565
  0.8790348085211139  0.1032200396785110  0.1273592516994805
  0.5532328307811784  0.4436636346116678  0.6265946041349614
  0.2203369683804219  0.4401983875636453  0.6275192252330642
  0.8800531572086756  0.1093719662180937  0.6254592912986012
  0.4641598067993005  0.9055269893289544  0.3790347711505486
  0.1267090294635879  0.5685558297627048  0.3741112616148785
  0.4700063776578352  0.5766773364071102  0.8726462622731340
  0.4392325516720913  0.2170359297237641  0.8738356407173660
  0.1133860652160142  0.2227591565931146  0.8769173981731412
  0.1086813033010025  0.8732088575510192  0.8853941548674629
  0.5245679592304370  0.7602839789390162  0.1315634009338173
  0.8790930291719663  0.7713525278232608  0.1170084296780822
  0.5391956806101609  0.7734020318746009  0.6178478148404982
  0.2146316592968209  0.1134213850830030  0.6111874325171170
  0.2091056205273600  0.7673279136068417  0.6340461935890803
  0.8914094746203431  0.7819096085697801  0.6310527499262847
  0.1129858681498521  0.2220512073734936  0.3753874528433795
  0.1200139380235950  0.8887197590394859  0.3675409259009097
  0.1153852386752387  0.5595479784587686  0.8744689500583346
  0.7868228976052654  0.5499360624471781  0.8713703724721710
  0.7807294075296720  0.2191939539064395  0.8798591064178888
  0.7740087795160173  0.8846564234283716  0.8766693806167064
  0.5520946843358830  0.1128159529570943  0.1201714698105757
  0.2147384301924318  0.4344325588064399  0.1267303006752349
  0.2184389501760964  0.7790677571633887  0.1194224120435152
  0.8954240207657448  0.4531167575428077  0.1194426817712733
  0.5451358588719732  0.1139992112577716  0.6271829446923149
  0.8864772861085664  0.4449555234924572  0.6303388578987972
 
  0.00000000E+00  0.00000000E+00  0.00000000E+00
  0.00000000E+00  0.00000000E+00  0.00000000E+00
  0.00000000E+00  0.00000000E+00  0.00000000E+00
  0.00000000E+00  0.00000000E+00  0.00000000E+00
  0.00000000E+00  0.00000000E+00  0.00000000E+00
  0.00000000E+00  0.00000000E+00  0.00000000E+00
  0.00000000E+00  0.00000000E+00  0.00000000E+00
  0.00000000E+00  0.00000000E+00  0.00000000E+00
  0.00000000E+00  0.00000000E+00  0.00000000E+00
  0.00000000E+00  0.00000000E+00  0.00000000E+00
  0.00000000E+00  0.00000000E+00  0.00000000E+00
  0.00000000E+00  0.00000000E+00  0.00000000E+00
  0.00000000E+00  0.00000000E+00  0.00000000E+00
  0.00000000E+00  0.00000000E+00  0.00000000E+00
  0.00000000E+00  0.00000000E+00  0.00000000E+00
  0.00000000E+00  0.00000000E+00  0.00000000E+00
  0.00000000E+00  0.00000000E+00  0.00000000E+00
  0.00000000E+00  0.00000000E+00  0.00000000E+00
  0.00000000E+00  0.00000000E+00  0.00000000E+00
  0.00000000E+00  0.00000000E+00  0.00000000E+00
  0.00000000E+00  0.00000000E+00  0.00000000E+00
  0.00000000E+00  0.00000000E+00  0.00000000E+00
  0.00000000E+00  0.00000000E+00  0.00000000E+00
  0.00000000E+00  0.00000000E+00  0.00000000E+00
  0.00000000E+00  0.00000000E+00  0.00000000E+00
  0.00000000E+00  0.00000000E+00  0.00000000E+00
  0.00000000E+00  0.00000000E+00  0.00000000E+00
  0.00000000E+00  0.00000000E+00  0.00000000E+00
  0.00000000E+00  0.00000000E+00  0.00000000E+00
  0.00000000E+00  0.00000000E+00  0.00000000E+00
  0.00000000E+00  0.00000000E+00  0.00000000E+00
  0.00000000E+00  0.00000000E+00  0.00000000E+00
  0.00000000E+00  0.00000000E+00  0.00000000E+00
  0.00000000E+00  0.00000000E+00  0.00000000E+00
  0.00000000E+00  0.00000000E+00  0.00000000E+00
  0.00000000E+00  0.00000000E+00  0.00000000E+00
