Fe2CrMn_32sqshcp                        
   2.80000000000000     
    -0.8895669558633579   -1.5258277639306947   -0.0027383641901079
     0.0020945019921818   -0.0063245042210916   -2.8453765415532959
     2.6795071310638692   -1.5319745475024378   -0.0054407884218137
   Fe   Cr   Mn
    16     8     8
Direct
  0.4939132809629140  0.3715933501598153  0.3329231985148963
  0.2517344444679614  0.3733917742679811  0.5814288453962098
  0.5001450187091251  0.3725755691550361  0.8265239302918450
  0.0002074741424015  0.3696213613197371  0.8279517284097595
  0.2499841094063628  0.8821291835079226  0.0843809567379911
  0.2555039930438502  0.8753737485767104  0.5846145761731563
  0.4983375373745008  0.8733979153734560  0.8310972144361026
  0.7450847388170772  0.8732777046157808  0.5841158147567381
  0.4992163697131716  0.1243716009761830  0.1692428185379949
  0.7466337892732825  0.1246658215322788  0.4147500967624533
  0.9994719950719048  0.1200572817063057  0.1687977532899760
  0.2533432810444082  0.1257900984863561  0.4152684047179130
  0.5036109028324526  0.1214198666290086  0.6677897582890443
  0.2559490292661197  0.1249394670393192  0.9174273257766784
  0.7500523064362377  0.6261983878235745  0.4182418575862039
  0.5058072176388113  0.6268088546267644  0.6678946056274300
  0.2211435442091312  0.3648326722239856  0.0794098498471924
  0.7218217718523798  0.3754965961234958  0.0740891205144578
  0.9945870613228625  0.3729318763797468  0.3404002937833846
  0.9985109602844965  0.8799826436178378  0.8334602546236971
  0.0023790211182951  0.1284741742844257  0.6600169392634051
  0.5063141586920353  0.6292896861823267  0.1775281845350180
  0.0054683648712239  0.6204243296615564  0.6593384466589323
  0.2736308859011905  0.6223429875735200  0.9212637153476607
  0.7394233778169327  0.3741699148433485  0.5827589612166633
  0.4987359447253660  0.8762458079245057  0.3338565295425320
  0.7491722116116912  0.8789314546074530  0.0842783410509501
  0.0004883922882786  0.8753753658381483  0.3371698934747633
  0.7524298809435700  0.1280818837636601  0.9176558234882096
  0.0019297423791952  0.6359174835416155  0.1715693925562365
  0.2530649272499786  0.6261083551059063  0.4188844402657834
  0.7719042665328034  0.6257827825322472  0.9158709285267602
 
  0.00000000E+00  0.00000000E+00  0.00000000E+00
  0.00000000E+00  0.00000000E+00  0.00000000E+00
  0.00000000E+00  0.00000000E+00  0.00000000E+00
  0.00000000E+00  0.00000000E+00  0.00000000E+00
  0.00000000E+00  0.00000000E+00  0.00000000E+00
  0.00000000E+00  0.00000000E+00  0.00000000E+00
  0.00000000E+00  0.00000000E+00  0.00000000E+00
  0.00000000E+00  0.00000000E+00  0.00000000E+00
  0.00000000E+00  0.00000000E+00  0.00000000E+00
  0.00000000E+00  0.00000000E+00  0.00000000E+00
  0.00000000E+00  0.00000000E+00  0.00000000E+00
  0.00000000E+00  0.00000000E+00  0.00000000E+00
  0.00000000E+00  0.00000000E+00  0.00000000E+00
  0.00000000E+00  0.00000000E+00  0.00000000E+00
  0.00000000E+00  0.00000000E+00  0.00000000E+00
  0.00000000E+00  0.00000000E+00  0.00000000E+00
  0.00000000E+00  0.00000000E+00  0.00000000E+00
  0.00000000E+00  0.00000000E+00  0.00000000E+00
  0.00000000E+00  0.00000000E+00  0.00000000E+00
  0.00000000E+00  0.00000000E+00  0.00000000E+00
  0.00000000E+00  0.00000000E+00  0.00000000E+00
  0.00000000E+00  0.00000000E+00  0.00000000E+00
  0.00000000E+00  0.00000000E+00  0.00000000E+00
  0.00000000E+00  0.00000000E+00  0.00000000E+00
  0.00000000E+00  0.00000000E+00  0.00000000E+00
  0.00000000E+00  0.00000000E+00  0.00000000E+00
  0.00000000E+00  0.00000000E+00  0.00000000E+00
  0.00000000E+00  0.00000000E+00  0.00000000E+00
  0.00000000E+00  0.00000000E+00  0.00000000E+00
  0.00000000E+00  0.00000000E+00  0.00000000E+00
  0.00000000E+00  0.00000000E+00  0.00000000E+00
  0.00000000E+00  0.00000000E+00  0.00000000E+00
