FeCo2Mn_32sqshcp                        
   2.80000000000000     
    -0.8827630928532819   -1.5311207229459556   -0.0000961064175056
    -0.0001063423801399   -0.0001234127419120   -2.8117583487931217
     2.6484807592585726   -1.5312376925533882    0.0000354620804737
   Fe   Co   Mn
     8    16     8
Direct
  0.2526739573381254  0.3760476721435210  0.0821184552494935
  0.7501678009415136  0.3787921813291347  0.0832556480826476
 -0.0009159033821484  0.3781913268718985  0.3340897362119811
  0.0000390263265656  0.8731887875127873  0.8354982867915893
  0.9962412533011840  0.1277881401916516  0.6672722990251773
  0.4974565480448573  0.6272551213178089  0.1676699588705712
  0.9988440625356310  0.6238541343491285  0.6661512341310741
  0.2493554542668141  0.6252387984355692  0.9180978185976668
  0.5014455451099631  0.3775856163720753  0.3334051227006505
  0.2512672611412947  0.3759192740669222  0.5853459461224501
  0.5016758798374659  0.3759598414208223  0.8325816391561237
 -0.0008833205081981  0.3768573405900927  0.8340986854472698
  0.2519362928131316  0.8729497582459833  0.0834894791994283
  0.2496629751921461  0.8744935670348140  0.5846493353789551
  0.4998606537018378  0.8742207513664975  0.8334636872052198
  0.7509333735333946  0.8747499584585976  0.5843029022838137
  0.4989891265694571  0.1241772470681590  0.1674603430668441
  0.7500408224816195  0.1228295917265692  0.4160433868666629
 -0.0014913682205774  0.1232544794931763  0.1661665799646448
  0.2506551166325424  0.1231765547320541  0.4158129929009126
  0.4984409980968467  0.1254445762333010  0.6654743056100749
  0.2487801261786202  0.1241929803065468  0.9165420491164131
  0.7499109408500433  0.6257758772183201  0.4163454310831528
  0.4998638581935361  0.6239362677031239  0.6654006131854040
  0.7511129347974315  0.3758591587165341  0.5832121984649454
  0.5000244994670426  0.8707160618951467  0.3325125503798975
  0.7497847324016618  0.8726041762199752  0.0824861535447086
  0.0006700402304638  0.8719942844866612  0.3323810981992864
  0.7512346350470379  0.1255414683634372  0.9159420368049076
  0.0021509009314436  0.6265217154366781  0.1659239883829165
  0.2507233812496864  0.6258792780572876  0.4157282669570981
  0.7493483948995876  0.6250040126357019  0.9170777710180269
 
  0.00000000E+00  0.00000000E+00  0.00000000E+00
  0.00000000E+00  0.00000000E+00  0.00000000E+00
  0.00000000E+00  0.00000000E+00  0.00000000E+00
  0.00000000E+00  0.00000000E+00  0.00000000E+00
  0.00000000E+00  0.00000000E+00  0.00000000E+00
  0.00000000E+00  0.00000000E+00  0.00000000E+00
  0.00000000E+00  0.00000000E+00  0.00000000E+00
  0.00000000E+00  0.00000000E+00  0.00000000E+00
  0.00000000E+00  0.00000000E+00  0.00000000E+00
  0.00000000E+00  0.00000000E+00  0.00000000E+00
  0.00000000E+00  0.00000000E+00  0.00000000E+00
  0.00000000E+00  0.00000000E+00  0.00000000E+00
  0.00000000E+00  0.00000000E+00  0.00000000E+00
  0.00000000E+00  0.00000000E+00  0.00000000E+00
  0.00000000E+00  0.00000000E+00  0.00000000E+00
  0.00000000E+00  0.00000000E+00  0.00000000E+00
  0.00000000E+00  0.00000000E+00  0.00000000E+00
  0.00000000E+00  0.00000000E+00  0.00000000E+00
  0.00000000E+00  0.00000000E+00  0.00000000E+00
  0.00000000E+00  0.00000000E+00  0.00000000E+00
  0.00000000E+00  0.00000000E+00  0.00000000E+00
  0.00000000E+00  0.00000000E+00  0.00000000E+00
  0.00000000E+00  0.00000000E+00  0.00000000E+00
  0.00000000E+00  0.00000000E+00  0.00000000E+00
  0.00000000E+00  0.00000000E+00  0.00000000E+00
  0.00000000E+00  0.00000000E+00  0.00000000E+00
  0.00000000E+00  0.00000000E+00  0.00000000E+00
  0.00000000E+00  0.00000000E+00  0.00000000E+00
  0.00000000E+00  0.00000000E+00  0.00000000E+00
  0.00000000E+00  0.00000000E+00  0.00000000E+00
  0.00000000E+00  0.00000000E+00  0.00000000E+00
  0.00000000E+00  0.00000000E+00  0.00000000E+00
