FeNiCo2_32sqshcp                        
   2.80000000000000     
    -0.8958792645932008   -1.5468751113272237    0.0011611378197329
     0.0063276656742859   -0.0014499164239252   -2.9208853833031365
     2.6796039304895878   -1.5421888331725828   -0.0066009845733769
   Fe   Ni   Co
     8     8    16
Direct
  0.2529544554581949  0.3689512331655074  0.0853221993826068
  0.7540235234402265  0.3727670166859324  0.0819561430539127
  0.0007027541110995  0.3780931446279833  0.3405758368138535
  0.9923114161762314  0.8771705786188574  0.8319842711290251
  0.0037374056499450  0.1333331793357549  0.6627702109682521
  0.5028923689973771  0.6315466337181348  0.1701251529166081
  0.0034650516658429  0.6171762387159287  0.6645153539323229
  0.2514078191335042  0.6238484097625084  0.9175286833653971
  0.7457316332923075  0.3747016689913851  0.5828305732803638
  0.4995138543449067  0.8762316617013929  0.3355396159530316
  0.7483965213845349  0.8762671772282902  0.0805548378839737
  0.9981587116857935  0.8756514908731116  0.3349430283603052
  0.7481158100575714  0.1258490944918389  0.9167735009988495
  0.9998349229047844  0.6278111275100856  0.1684024987106578
  0.2510155329410954  0.6261117713134039  0.4163400618904225
  0.7505423061377418  0.6248009096605911  0.9186918250295778
  0.5030540696878348  0.3745950394578568  0.3334442581700540
  0.2568302306495752  0.3757375995601451  0.5843153267465777
  0.4980928455915638  0.3728398638628784  0.8305502117646708
  0.0023409633944224  0.3734702481282958  0.8326756400446562
  0.2471044652889139  0.8787111870749561  0.0830964017069576
  0.2514848702404999  0.8764862960025902  0.5822298993856617
  0.4921711263277276  0.8750404266608880  0.8318082007677865
  0.7533170929962550  0.8758424383679541  0.5834604404336260
  0.5017021764594191  0.1197287053988596  0.1670032381139639
  0.7464413172045473  0.1235455744706410  0.4155164523251499
  0.9974055297264975  0.1193708545450527  0.1661520950871263
  0.2485711682122293  0.1238655025316834  0.4124903360466068
  0.4994680303613558  0.1226628247565158  0.6677133606638369
  0.2509009218241383  0.1237214512592766  0.9140069628608564
  0.7490167472820959  0.6269953758038190  0.4179509390976290
  0.4992943573717667  0.6270752757178878  0.6687324431156663
 
  0.00000000E+00  0.00000000E+00  0.00000000E+00
  0.00000000E+00  0.00000000E+00  0.00000000E+00
  0.00000000E+00  0.00000000E+00  0.00000000E+00
  0.00000000E+00  0.00000000E+00  0.00000000E+00
  0.00000000E+00  0.00000000E+00  0.00000000E+00
  0.00000000E+00  0.00000000E+00  0.00000000E+00
  0.00000000E+00  0.00000000E+00  0.00000000E+00
  0.00000000E+00  0.00000000E+00  0.00000000E+00
  0.00000000E+00  0.00000000E+00  0.00000000E+00
  0.00000000E+00  0.00000000E+00  0.00000000E+00
  0.00000000E+00  0.00000000E+00  0.00000000E+00
  0.00000000E+00  0.00000000E+00  0.00000000E+00
  0.00000000E+00  0.00000000E+00  0.00000000E+00
  0.00000000E+00  0.00000000E+00  0.00000000E+00
  0.00000000E+00  0.00000000E+00  0.00000000E+00
  0.00000000E+00  0.00000000E+00  0.00000000E+00
  0.00000000E+00  0.00000000E+00  0.00000000E+00
  0.00000000E+00  0.00000000E+00  0.00000000E+00
  0.00000000E+00  0.00000000E+00  0.00000000E+00
  0.00000000E+00  0.00000000E+00  0.00000000E+00
  0.00000000E+00  0.00000000E+00  0.00000000E+00
  0.00000000E+00  0.00000000E+00  0.00000000E+00
  0.00000000E+00  0.00000000E+00  0.00000000E+00
  0.00000000E+00  0.00000000E+00  0.00000000E+00
  0.00000000E+00  0.00000000E+00  0.00000000E+00
  0.00000000E+00  0.00000000E+00  0.00000000E+00
  0.00000000E+00  0.00000000E+00  0.00000000E+00
  0.00000000E+00  0.00000000E+00  0.00000000E+00
  0.00000000E+00  0.00000000E+00  0.00000000E+00
  0.00000000E+00  0.00000000E+00  0.00000000E+00
  0.00000000E+00  0.00000000E+00  0.00000000E+00
  0.00000000E+00  0.00000000E+00  0.00000000E+00
