NiCrMn2_32sqshcp                        
   2.70000000000000     
    -0.9759606527021667   -1.5733658947303204   -0.0094338668089274
     0.0015265685222396   -0.0184203215431419   -3.0143868022257956
     2.9182580189802123   -1.5685093418258900   -0.0113174785393248
   Ni   Cr   Mn
     8     8    16
Direct
  0.2595249743861165  0.3712720027302314  0.0766685729917400
  0.7581108492358301  0.3733571833611213  0.0810352036572147
  0.9860307863977710  0.3773346854340118  0.3332996523398832
  0.9972584111233936  0.8746362814817893  0.8234729135167250
  0.0084368603736400  0.1275585455298100  0.6729467813146313
  0.5343730704742884  0.6247910571528603  0.1710008911261182
  0.0081877050728555  0.6239988687732180  0.6733870446288189
  0.2706179977533433  0.6231632449859660  0.9185111747272802
  0.7255882540350230  0.3772483914997835  0.5732835218051068
  0.4236333527007733  0.8798510383916212  0.3161324982858875
  0.7205570705174716  0.8836041232880217  0.0609227644260579
  0.9206418521953262  0.8752903935417962  0.3111159395275812
  0.7934215039954544  0.1220885962589139  0.9197054568317578
  0.0429081067885037  0.6255522661019837  0.1740324597575648
  0.2802794359020612  0.6238071916062214  0.4326013600726273
  0.7796743510053323  0.6330847372931744  0.9264356158190714
  0.4799653757481621  0.3721470075720767  0.3298661377044556
  0.2389506542479298  0.3718310546378578  0.5804485703363914
  0.4834283251462789  0.3718148752867156  0.8358482613057514
 -0.0122291401750675  0.3767451205844033  0.8285577497295471
  0.2383554027251651  0.8704286886683962  0.0687516035328314
  0.2125459963172221  0.8762916381505381  0.5778492541652720
  0.4835000309429536  0.8726195770879640  0.8196671015483400
  0.7212693724138370  0.8746047309012692  0.5839400308569909
  0.5341040281446452  0.1245008317045791  0.1787422070491499
  0.7589418922208102  0.1226394315727324  0.4283304284469983
  0.0345883037175901  0.1266840039593168  0.1731242921517635
  0.2486021151227043  0.1273409507521751  0.4316380852119824
  0.5074665124731458  0.1314751535314435  0.6705138037740360
  0.2865710663950323  0.1173517638815394  0.9206988852565832
  0.7647464527271127  0.6306219730796643  0.4275959470874712
  0.5099490298753101  0.6162645911988038  0.6798757910143614
 
  0.00000000E+00  0.00000000E+00  0.00000000E+00
  0.00000000E+00  0.00000000E+00  0.00000000E+00
  0.00000000E+00  0.00000000E+00  0.00000000E+00
  0.00000000E+00  0.00000000E+00  0.00000000E+00
  0.00000000E+00  0.00000000E+00  0.00000000E+00
  0.00000000E+00  0.00000000E+00  0.00000000E+00
  0.00000000E+00  0.00000000E+00  0.00000000E+00
  0.00000000E+00  0.00000000E+00  0.00000000E+00
  0.00000000E+00  0.00000000E+00  0.00000000E+00
  0.00000000E+00  0.00000000E+00  0.00000000E+00
  0.00000000E+00  0.00000000E+00  0.00000000E+00
  0.00000000E+00  0.00000000E+00  0.00000000E+00
  0.00000000E+00  0.00000000E+00  0.00000000E+00
  0.00000000E+00  0.00000000E+00  0.00000000E+00
  0.00000000E+00  0.00000000E+00  0.00000000E+00
  0.00000000E+00  0.00000000E+00  0.00000000E+00
  0.00000000E+00  0.00000000E+00  0.00000000E+00
  0.00000000E+00  0.00000000E+00  0.00000000E+00
  0.00000000E+00  0.00000000E+00  0.00000000E+00
  0.00000000E+00  0.00000000E+00  0.00000000E+00
  0.00000000E+00  0.00000000E+00  0.00000000E+00
  0.00000000E+00  0.00000000E+00  0.00000000E+00
  0.00000000E+00  0.00000000E+00  0.00000000E+00
  0.00000000E+00  0.00000000E+00  0.00000000E+00
  0.00000000E+00  0.00000000E+00  0.00000000E+00
  0.00000000E+00  0.00000000E+00  0.00000000E+00
  0.00000000E+00  0.00000000E+00  0.00000000E+00
  0.00000000E+00  0.00000000E+00  0.00000000E+00
  0.00000000E+00  0.00000000E+00  0.00000000E+00
  0.00000000E+00  0.00000000E+00  0.00000000E+00
  0.00000000E+00  0.00000000E+00  0.00000000E+00
  0.00000000E+00  0.00000000E+00  0.00000000E+00
