Fe2CoMn_32sqshcp                        
   2.80000000000000     
    -0.8822709829813664   -1.5233028096067633   -0.0003750292328269
    -0.0007708038077458   -0.0002506641739315   -2.7868312385687153
     2.6420238317280571   -1.5205380053867477    0.0005677916538049
   Fe   Co   Mn
    16     8     8
Direct
  0.5001611499899359  0.3733666522834110  0.3340531268935286
  0.2494105753653419  0.3747223730199765  0.5834968641180591
  0.4969221047058643  0.3745723044378865  0.8339857026030685
  0.0013929362552078  0.3745256511257778  0.8322077568829879
  0.2523940471919620  0.8758998441494134  0.0834267206656630
  0.2508749629980038  0.8746231462985384  0.5821141287445444
  0.4988905289375163  0.8769688339762698  0.8334831917736775
  0.7495376275377087  0.8749622631343571  0.5831834849598965
  0.4967624086165019  0.1249074074521431  0.1677483355358910
  0.7481622965112208  0.1247604454661447  0.4177774172976173
  0.0017418193571531  0.1201767448053007  0.1667180985264164
  0.2514164161906361  0.1243102439468581  0.4171455978830572
  0.5006952172039130  0.1249003370622782  0.6652739020886296
  0.2479614449982582  0.1244694489254898  0.9183424571744973
  0.7471663608867556  0.6253087138249575  0.4176269542228493
  0.5013885169307667  0.6249425381363486  0.6651704462565036
  0.2507345022034827  0.3732351314653862  0.0827945082334619
  0.7491470805070429  0.3740649502530313  0.0842724687770449
  0.9991702274704931  0.3753897915359217  0.3333944071819437
  0.0011226295219119  0.8753348411816841  0.8331525055312252
  0.0002447093893492  0.1253173837081194  0.6664221091391230
  0.4997537158009394  0.6265248056146620  0.1674350004883357
  0.9998466150973903  0.6254111192455047  0.6655648924487726
  0.2491400891337367  0.6256068988856071  0.9171739864489135
  0.7484802990030185  0.3745335070605559  0.5844309434101111
  0.4994523024306774  0.8759566995072732  0.3333303067623760
  0.7494037824941342  0.8769534975574246  0.0833788035617522
  0.0000771928308204  0.8777271123249385  0.3332469731985398
  0.7510801547361302  0.1251094000485399  0.9152953820432024
  0.0034765195482331  0.6275852876262977  0.1659037384318409
  0.2535272168653637  0.6242196651208218  0.4172074724663455
  0.7504645492905294  0.6236129608190804  0.9152423162501102
 
  0.00000000E+00  0.00000000E+00  0.00000000E+00
  0.00000000E+00  0.00000000E+00  0.00000000E+00
  0.00000000E+00  0.00000000E+00  0.00000000E+00
  0.00000000E+00  0.00000000E+00  0.00000000E+00
  0.00000000E+00  0.00000000E+00  0.00000000E+00
  0.00000000E+00  0.00000000E+00  0.00000000E+00
  0.00000000E+00  0.00000000E+00  0.00000000E+00
  0.00000000E+00  0.00000000E+00  0.00000000E+00
  0.00000000E+00  0.00000000E+00  0.00000000E+00
  0.00000000E+00  0.00000000E+00  0.00000000E+00
  0.00000000E+00  0.00000000E+00  0.00000000E+00
  0.00000000E+00  0.00000000E+00  0.00000000E+00
  0.00000000E+00  0.00000000E+00  0.00000000E+00
  0.00000000E+00  0.00000000E+00  0.00000000E+00
  0.00000000E+00  0.00000000E+00  0.00000000E+00
  0.00000000E+00  0.00000000E+00  0.00000000E+00
  0.00000000E+00  0.00000000E+00  0.00000000E+00
  0.00000000E+00  0.00000000E+00  0.00000000E+00
  0.00000000E+00  0.00000000E+00  0.00000000E+00
  0.00000000E+00  0.00000000E+00  0.00000000E+00
  0.00000000E+00  0.00000000E+00  0.00000000E+00
  0.00000000E+00  0.00000000E+00  0.00000000E+00
  0.00000000E+00  0.00000000E+00  0.00000000E+00
  0.00000000E+00  0.00000000E+00  0.00000000E+00
  0.00000000E+00  0.00000000E+00  0.00000000E+00
  0.00000000E+00  0.00000000E+00  0.00000000E+00
  0.00000000E+00  0.00000000E+00  0.00000000E+00
  0.00000000E+00  0.00000000E+00  0.00000000E+00
  0.00000000E+00  0.00000000E+00  0.00000000E+00
  0.00000000E+00  0.00000000E+00  0.00000000E+00
  0.00000000E+00  0.00000000E+00  0.00000000E+00
  0.00000000E+00  0.00000000E+00  0.00000000E+00
