Fe2NiPd_32sqshcp                        
   2.80000000000000     
    -0.9482971601937906   -1.6509044151911938    0.0061841366095659
     0.0086495241326656    0.0068806021759242   -3.0557972341015294
     2.7409872823345252   -1.5917014515091479   -0.0043088861818177
   Fe   Ni   Pd
    16     8     8
Direct
  0.5006351372859614  0.3777042787327123  0.3306261301024629
  0.2484648888519290  0.3659902789554067  0.5986642169132722
  0.4840404623918732  0.3750518392518465  0.8433233484067953
  0.0136104958664385  0.3791164417135103  0.8424029391894299
  0.2500252992724348  0.8732402129913431  0.0816504869092322
  0.2487088095934661  0.8735290435544578  0.6047922098478505
  0.4961384325006111  0.8747795432673231  0.8376384956871484
  0.7426865501614092  0.8665424982003035  0.6045406688414946
  0.4882356932364826  0.1338505774038043  0.1527477660281983
  0.7485319183790030  0.1369391934364424  0.4003921632414881
  0.0122066564974557  0.1385693995224057  0.1562630037064740
  0.2534423774898944  0.1367848232900388  0.4088538864977181
  0.4984173926042955  0.1198579975074973  0.6440533853607776
  0.2452027364939130  0.1231175960014312  0.8889034719515696
  0.7499443289926128  0.6186434506985997  0.4209766991094854
  0.4985484735807779  0.6212403608009144  0.6678099093396771
  0.2509523259036150  0.3748738992771262  0.0838606948843029
  0.7443868216486603  0.3694784907428150  0.0908044335374428
  0.0056872044875909  0.3680979661419305  0.3320921214973970
  0.0091883474234097  0.8737838830904779  0.8356954551901494
  0.0003330040581546  0.1125081649374171  0.6480262950311083
  0.4986463031555991  0.6208272565411269  0.1663967996382041
  0.0077404954003864  0.6281881923569603  0.6720447123029367
  0.2518751869437503  0.6272709052298564  0.9115380167509805
  0.7572171947240091  0.3735681146177249  0.5898076083440539
  0.4969343821817001  0.8826789841512724  0.3472451834196729
  0.7484152862421842  0.8824238573473465  0.0844878734478134
  0.0004053247156020  0.8859788287387143  0.3501442071349711
  0.7511672007422816  0.1312694376707314  0.8996267630969064
  0.9997054340759858  0.6201522070055125  0.1680618903689532
  0.2529854096234503  0.6143949482397545  0.4252477652068936
  0.7455204254750669  0.6195473285831835  0.9112813990151308
 
  0.00000000E+00  0.00000000E+00  0.00000000E+00
  0.00000000E+00  0.00000000E+00  0.00000000E+00
  0.00000000E+00  0.00000000E+00  0.00000000E+00
  0.00000000E+00  0.00000000E+00  0.00000000E+00
  0.00000000E+00  0.00000000E+00  0.00000000E+00
  0.00000000E+00  0.00000000E+00  0.00000000E+00
  0.00000000E+00  0.00000000E+00  0.00000000E+00
  0.00000000E+00  0.00000000E+00  0.00000000E+00
  0.00000000E+00  0.00000000E+00  0.00000000E+00
  0.00000000E+00  0.00000000E+00  0.00000000E+00
  0.00000000E+00  0.00000000E+00  0.00000000E+00
  0.00000000E+00  0.00000000E+00  0.00000000E+00
  0.00000000E+00  0.00000000E+00  0.00000000E+00
  0.00000000E+00  0.00000000E+00  0.00000000E+00
  0.00000000E+00  0.00000000E+00  0.00000000E+00
  0.00000000E+00  0.00000000E+00  0.00000000E+00
  0.00000000E+00  0.00000000E+00  0.00000000E+00
  0.00000000E+00  0.00000000E+00  0.00000000E+00
  0.00000000E+00  0.00000000E+00  0.00000000E+00
  0.00000000E+00  0.00000000E+00  0.00000000E+00
  0.00000000E+00  0.00000000E+00  0.00000000E+00
  0.00000000E+00  0.00000000E+00  0.00000000E+00
  0.00000000E+00  0.00000000E+00  0.00000000E+00
  0.00000000E+00  0.00000000E+00  0.00000000E+00
  0.00000000E+00  0.00000000E+00  0.00000000E+00
  0.00000000E+00  0.00000000E+00  0.00000000E+00
  0.00000000E+00  0.00000000E+00  0.00000000E+00
  0.00000000E+00  0.00000000E+00  0.00000000E+00
  0.00000000E+00  0.00000000E+00  0.00000000E+00
  0.00000000E+00  0.00000000E+00  0.00000000E+00
  0.00000000E+00  0.00000000E+00  0.00000000E+00
  0.00000000E+00  0.00000000E+00  0.00000000E+00
