FeCoMn2_32sqshcp                        
   2.80000000000000     
    -0.8898342595166356   -1.5357012429474752    0.0000109050840072
     0.0005591625079863   -0.0003085677421318   -2.8328987534979517
     2.6638016542992764   -1.5323759698668578   -0.0006985215068539
   Fe   Co   Mn
     8     8    16
Direct
  0.2469963821978817  0.3761894687110359  0.0858583385650566
  0.7495955797825439  0.3754932414921434  0.0828961354348673
  0.0037491102011194  0.3746005076075594  0.3323140636691487
  0.9994468273126675  0.8752498603669555  0.8323763976899687
 -0.0027948280687555  0.1252315950570826  0.6705845547616219
  0.5035761553318185  0.6245447284247819  0.1631138877525997
 -0.0017300749684950  0.6257825288968365  0.6690742642664075
  0.2494874249331010  0.6237146471332078  0.9163789224382638
  0.7536831509453646  0.3744511149789226  0.5828130459240439
  0.5007333998335005  0.8759183374038345  0.3320710495233885
  0.7527573705269640  0.8755794226805828  0.0811222622377770
  0.0032484705988299  0.8756806405662976  0.3304085565304681
  0.7503027693483257  0.1240576422811189  0.9179428495684153
  0.9971966613389013  0.6238022764633067  0.1674404584097556
  0.2487163042112422  0.6254724265524522  0.4158723768694613
  0.7544251088257475  0.6249775227553197  0.9167486062969628
  0.4997649668154011  0.3777091392630142  0.3331009704448415
  0.2459614235897540  0.3741772618024326  0.5803802547262318
  0.5020073877264284  0.3758876382610675  0.8366718161851702
  0.0007763388955039  0.3742034720014364  0.8318728174338919
  0.2490078157584634  0.8720957656903763  0.0833076816779243
  0.2499010553508812  0.8749519835981024  0.5801162911779520
  0.5072490930267960  0.8738792506724612  0.8354043175483337
  0.7546125101361432  0.8762212256314312  0.5812522177777201
  0.5003368637598903  0.1256031581753388  0.1637581168137426
  0.7491982324476046  0.1260083868091987  0.4190102312693446
  0.9950809502031994  0.1290737569897054  0.1676933144339222
  0.2476464535669439  0.1200454282889642  0.4163091766581951
  0.4946511677926306  0.1311149072742413  0.6719142234340487
  0.2443531632818879  0.1258747974804429  0.9158683722859229
  0.7538775948014418  0.6241402068162182  0.4168972542466040
  0.4961851704962427  0.6182676598741381  0.6694271739479261
 
  0.00000000E+00  0.00000000E+00  0.00000000E+00
  0.00000000E+00  0.00000000E+00  0.00000000E+00
  0.00000000E+00  0.00000000E+00  0.00000000E+00
  0.00000000E+00  0.00000000E+00  0.00000000E+00
  0.00000000E+00  0.00000000E+00  0.00000000E+00
  0.00000000E+00  0.00000000E+00  0.00000000E+00
  0.00000000E+00  0.00000000E+00  0.00000000E+00
  0.00000000E+00  0.00000000E+00  0.00000000E+00
  0.00000000E+00  0.00000000E+00  0.00000000E+00
  0.00000000E+00  0.00000000E+00  0.00000000E+00
  0.00000000E+00  0.00000000E+00  0.00000000E+00
  0.00000000E+00  0.00000000E+00  0.00000000E+00
  0.00000000E+00  0.00000000E+00  0.00000000E+00
  0.00000000E+00  0.00000000E+00  0.00000000E+00
  0.00000000E+00  0.00000000E+00  0.00000000E+00
  0.00000000E+00  0.00000000E+00  0.00000000E+00
  0.00000000E+00  0.00000000E+00  0.00000000E+00
  0.00000000E+00  0.00000000E+00  0.00000000E+00
  0.00000000E+00  0.00000000E+00  0.00000000E+00
  0.00000000E+00  0.00000000E+00  0.00000000E+00
  0.00000000E+00  0.00000000E+00  0.00000000E+00
  0.00000000E+00  0.00000000E+00  0.00000000E+00
  0.00000000E+00  0.00000000E+00  0.00000000E+00
  0.00000000E+00  0.00000000E+00  0.00000000E+00
  0.00000000E+00  0.00000000E+00  0.00000000E+00
  0.00000000E+00  0.00000000E+00  0.00000000E+00
  0.00000000E+00  0.00000000E+00  0.00000000E+00
  0.00000000E+00  0.00000000E+00  0.00000000E+00
  0.00000000E+00  0.00000000E+00  0.00000000E+00
  0.00000000E+00  0.00000000E+00  0.00000000E+00
  0.00000000E+00  0.00000000E+00  0.00000000E+00
  0.00000000E+00  0.00000000E+00  0.00000000E+00
