FeCrCo2_SQShcp                          
   1.00000000000000     
    -2.4849739392143579   -4.3223311657736421   -0.0018052791725626
     0.0082147542799835   -0.0080925678493091   -8.0369387744038363
     7.4865216733194506   -4.3405906024893968   -0.0120486896403237
   Fe   Cr   Co
     8     8    16
Direct
  0.2522021111866156  0.3744043869953412  0.0804976834326918
  0.7510691519124228  0.3767199606619174  0.0848866338203512
  0.0019079934293640  0.3748499802603355  0.3353107493210478
  0.0025174917641839  0.8744503571370145  0.8343827241856092
 -0.0001572697325502  0.1246007765657136  0.6629698127538501
  0.4952519726808211  0.6276374413271445  0.1698997711192937
 -0.0002467140466389  0.6241232296732613  0.6638967093675556
  0.2481451149594600  0.6282065198325745  0.9202206415604028
  0.7484158666249143  0.3788394519586272  0.5842643170541126
  0.5015415887471882  0.8794363164757086  0.3339741555835938
  0.7512122197538239  0.8688760579798304  0.0873081593879819
  0.0024668229080288  0.8840368996040671  0.3382991402074138
  0.7485764474121405  0.1330792590451687  0.9148221742838797
 -0.0011761615443861  0.6280254870703469  0.1670858165316445
  0.2549000785588229  0.6157252999627546  0.4163200378774297
  0.7473444368749913  0.6150439774802786  0.9107543381936265
  0.5032462680565879  0.3766059512899673  0.3311050659549316
  0.2526607798207473  0.3748940225707132  0.5846141003751488
  0.4940702321701526  0.3734841924808787  0.8308055432272166
  0.0021176754871361  0.3743884099363960  0.8314518112635322
  0.2525129327026017  0.8749310616875897  0.0823397643676329
  0.2526796879646437  0.8735252622344846  0.5838107710294314
  0.4995952603411977  0.8747958393455100  0.8333610749267543
  0.7465068717491499  0.8729941328423367  0.5859926558025982
  0.4980385180402435  0.1237127706790974  0.1674776711364767
  0.7481826400903293  0.1263050141151189  0.4142477672986447
  0.0010335273225468  0.1206351680149427  0.1662220233982134
  0.2539049429632469  0.1278669702503268  0.4168467207605304
  0.4988332852451061  0.1231494111093265  0.6663277380192228
  0.2500503152908896  0.1228873164110521  0.9182566993950994
  0.7471486829666880  0.6259206120416559  0.4147341683365109
  0.4954472282995523  0.6258484629605049  0.6675135600275560
 
  0.00000000E+00  0.00000000E+00  0.00000000E+00
  0.00000000E+00  0.00000000E+00  0.00000000E+00
  0.00000000E+00  0.00000000E+00  0.00000000E+00
  0.00000000E+00  0.00000000E+00  0.00000000E+00
  0.00000000E+00  0.00000000E+00  0.00000000E+00
  0.00000000E+00  0.00000000E+00  0.00000000E+00
  0.00000000E+00  0.00000000E+00  0.00000000E+00
  0.00000000E+00  0.00000000E+00  0.00000000E+00
  0.00000000E+00  0.00000000E+00  0.00000000E+00
  0.00000000E+00  0.00000000E+00  0.00000000E+00
  0.00000000E+00  0.00000000E+00  0.00000000E+00
  0.00000000E+00  0.00000000E+00  0.00000000E+00
  0.00000000E+00  0.00000000E+00  0.00000000E+00
  0.00000000E+00  0.00000000E+00  0.00000000E+00
  0.00000000E+00  0.00000000E+00  0.00000000E+00
  0.00000000E+00  0.00000000E+00  0.00000000E+00
  0.00000000E+00  0.00000000E+00  0.00000000E+00
  0.00000000E+00  0.00000000E+00  0.00000000E+00
  0.00000000E+00  0.00000000E+00  0.00000000E+00
  0.00000000E+00  0.00000000E+00  0.00000000E+00
  0.00000000E+00  0.00000000E+00  0.00000000E+00
  0.00000000E+00  0.00000000E+00  0.00000000E+00
  0.00000000E+00  0.00000000E+00  0.00000000E+00
  0.00000000E+00  0.00000000E+00  0.00000000E+00
  0.00000000E+00  0.00000000E+00  0.00000000E+00
  0.00000000E+00  0.00000000E+00  0.00000000E+00
  0.00000000E+00  0.00000000E+00  0.00000000E+00
  0.00000000E+00  0.00000000E+00  0.00000000E+00
  0.00000000E+00  0.00000000E+00  0.00000000E+00
  0.00000000E+00  0.00000000E+00  0.00000000E+00
  0.00000000E+00  0.00000000E+00  0.00000000E+00
  0.00000000E+00  0.00000000E+00  0.00000000E+00
