Ternary_NiCrCosqshcp                    
   2.60000000000000     
    -1.4366472164975808   -2.4915276293382678   -0.0033000268855025
    -1.4482918783172454    2.4982417566450215    0.0029257659497007
    -0.0004255934112541   -0.0038673989883039   -3.0988192178894689
   Ni   Cr   Co
    12    12    12
Direct
  0.4425163887965746  0.5584799466405949  0.3748175567482342
  0.4481312823343863  0.2248656175055898  0.3746100181009592
  0.7809470008291519  0.5580520047306978  0.3755334077454105
  0.7798204585887631  0.2244484955394435  0.3761372719324242
  0.7825558368998532  0.8922071844291583  0.3740957936917655
  0.4458876723164228  0.8914230146272968  0.8759219431094801
  0.5568720932320178  0.4472272767284780  0.1237214497617317
  0.2241461090155214  0.1125606612907210  0.1255821077308639
  0.8867624428959323  0.1087069569080835  0.1238816565415231
  0.5554005451752497  0.4447443365727473  0.6259330303691578
  0.2206407120858483  0.4420191516445655  0.6264260135019736
  0.8859433767890417  0.1086007776722396  0.6256992167592837
  0.4448690122462278  0.8949631856314459  0.3725146205600789
  0.1148107775890331  0.5631153340990389  0.3752890017854408
  0.4456089389845901  0.5584500837199856  0.8752570538123273
  0.4457904994117269  0.2206471660489592  0.8770322867340437
  0.1114579244335046  0.2108383003797839  0.8717517813932000
  0.1052177186694921  0.8773462333608397  0.8835384474024678
  0.5449487341309013  0.7733367664435845  0.1269802956494817
  0.8901872772259617  0.7745967256729157  0.1194208306790514
  0.5502367814801700  0.7769033131174615  0.6241263602986766
  0.2229086239709755  0.1141453842404972  0.6142255954834863
  0.2173740590840358  0.7700074234626457  0.6300012003678741
  0.8972394550562578  0.7768335298529879  0.6296380362609876
  0.1098654077601644  0.2242166905396907  0.3736658812133790
  0.1134347516344779  0.8892614532653056  0.3746150268308442
  0.1119311665914365  0.5537161966318613  0.8755331322183727
  0.7710995199389898  0.5546087722320631  0.8743472776291497
  0.7803999889215788  0.2222104355870742  0.8742947281462442
  0.7769180122086619  0.8914400736351065  0.8749641862000985
  0.5609572660963046  0.1151357576500380  0.1216284599642073
  0.2240525308821082  0.4458274774064990  0.1214903658164901
  0.2238874381110038  0.7747665449890152  0.1275787545904928
  0.8900928630014292  0.4475951645222658  0.1218291597935958
  0.5499428791181792  0.1111795261105667  0.6293240250241516
  0.8871444544940117  0.4455230371107595  0.6285940261530713
 
  0.00000000E+00  0.00000000E+00  0.00000000E+00
  0.00000000E+00  0.00000000E+00  0.00000000E+00
  0.00000000E+00  0.00000000E+00  0.00000000E+00
  0.00000000E+00  0.00000000E+00  0.00000000E+00
  0.00000000E+00  0.00000000E+00  0.00000000E+00
  0.00000000E+00  0.00000000E+00  0.00000000E+00
  0.00000000E+00  0.00000000E+00  0.00000000E+00
  0.00000000E+00  0.00000000E+00  0.00000000E+00
  0.00000000E+00  0.00000000E+00  0.00000000E+00
  0.00000000E+00  0.00000000E+00  0.00000000E+00
  0.00000000E+00  0.00000000E+00  0.00000000E+00
  0.00000000E+00  0.00000000E+00  0.00000000E+00
  0.00000000E+00  0.00000000E+00  0.00000000E+00
  0.00000000E+00  0.00000000E+00  0.00000000E+00
  0.00000000E+00  0.00000000E+00  0.00000000E+00
  0.00000000E+00  0.00000000E+00  0.00000000E+00
  0.00000000E+00  0.00000000E+00  0.00000000E+00
  0.00000000E+00  0.00000000E+00  0.00000000E+00
  0.00000000E+00  0.00000000E+00  0.00000000E+00
  0.00000000E+00  0.00000000E+00  0.00000000E+00
  0.00000000E+00  0.00000000E+00  0.00000000E+00
  0.00000000E+00  0.00000000E+00  0.00000000E+00
  0.00000000E+00  0.00000000E+00  0.00000000E+00
  0.00000000E+00  0.00000000E+00  0.00000000E+00
  0.00000000E+00  0.00000000E+00  0.00000000E+00
  0.00000000E+00  0.00000000E+00  0.00000000E+00
  0.00000000E+00  0.00000000E+00  0.00000000E+00
  0.00000000E+00  0.00000000E+00  0.00000000E+00
  0.00000000E+00  0.00000000E+00  0.00000000E+00
  0.00000000E+00  0.00000000E+00  0.00000000E+00
  0.00000000E+00  0.00000000E+00  0.00000000E+00
  0.00000000E+00  0.00000000E+00  0.00000000E+00
  0.00000000E+00  0.00000000E+00  0.00000000E+00
  0.00000000E+00  0.00000000E+00  0.00000000E+00
  0.00000000E+00  0.00000000E+00  0.00000000E+00
  0.00000000E+00  0.00000000E+00  0.00000000E+00
