Ternary_FeCrPdsqshcp                    
   2.60000000000000     
    -1.5419635344411766   -2.6622786641954632    0.0273857510860073
    -1.5309016253394394    2.6560786911866576   -0.0395015364488013
    -0.0131138563797807    0.0418445047565049   -3.3328034725919515
   Fe   Cr   Pd
    12    12    12
Direct
  0.4505436094542308  0.5615562743488295  0.3777983344546228
  0.4522161658339781  0.2385399770958312  0.3713136073697542
  0.7548826705455162  0.5578976833779604  0.3696895383613696
  0.7784484738920147  0.2068148205659333  0.3842276295404029
  0.7749822120120304  0.8969335010849048  0.3655011918415412
  0.4402836245712244  0.8879450361308447  0.8742737594405842
  0.5561594617840301  0.4495526646823839  0.1247884954948917
  0.2237587693187651  0.1120586952565280  0.1212983119581967
  0.8918746222502641  0.0976407435585801  0.1264075982896930
  0.5338770956185369  0.4361794046138537  0.6288340648780223
  0.2205282381551631  0.4366294638169562  0.6264373000886831
  0.9021977720837229  0.1176512331457186  0.6294792461865094
  0.4637220635444751  0.8995682866989235  0.3852305182025805
  0.1239857686034977  0.5524437441016323  0.3781412478566288
  0.4377310178031741  0.5498881016704366  0.8507463179079736
  0.4365183981039665  0.2110159094644320  0.8882740332497645
  0.1096118277583590  0.2065280216226018  0.8839480002862912
  0.1177092345006902  0.9136962743241441  0.8454318550334233
  0.5569053232729743  0.7734097508903197  0.1308812415041324
  0.9006488286061860  0.7880996290157659  0.1308143997824532
  0.5336826700427827  0.7707111401979202  0.6173262099256193
  0.2238724350881560  0.1165373235759255  0.6268239531754940
  0.2402167582274254  0.7745277657068677  0.6380529273716283
  0.8556495465850011  0.7744051809888777  0.6090115816921614
  0.1145669703205402  0.2218977815565850  0.3776021999899491
  0.1157987448273392  0.8816674015584094  0.3889571876536546
  0.1164984171215331  0.5546795133245433  0.8687509726313304
  0.7688681550345625  0.5519936015693270  0.8743546897006316
  0.7796825816335411  0.2184981745000053  0.8768224110685076
  0.7677672012906911  0.8834852996070235  0.8734301518751107
  0.5622730934865382  0.1118740786648077  0.1358290430960010
  0.2339825643040756  0.4406744060672025  0.1204926890077749
  0.2277609088274097  0.7858686864998677  0.1219696828059168
  0.8900251113104684  0.4460506794870536  0.1438393190634021
  0.5507363487096637  0.1150901828167439  0.6253848730429432
  0.8920333154774716  0.4579895684122627  0.6078354161723567
 
  0.00000000E+00  0.00000000E+00  0.00000000E+00
  0.00000000E+00  0.00000000E+00  0.00000000E+00
  0.00000000E+00  0.00000000E+00  0.00000000E+00
  0.00000000E+00  0.00000000E+00  0.00000000E+00
  0.00000000E+00  0.00000000E+00  0.00000000E+00
  0.00000000E+00  0.00000000E+00  0.00000000E+00
  0.00000000E+00  0.00000000E+00  0.00000000E+00
  0.00000000E+00  0.00000000E+00  0.00000000E+00
  0.00000000E+00  0.00000000E+00  0.00000000E+00
  0.00000000E+00  0.00000000E+00  0.00000000E+00
  0.00000000E+00  0.00000000E+00  0.00000000E+00
  0.00000000E+00  0.00000000E+00  0.00000000E+00
  0.00000000E+00  0.00000000E+00  0.00000000E+00
  0.00000000E+00  0.00000000E+00  0.00000000E+00
  0.00000000E+00  0.00000000E+00  0.00000000E+00
  0.00000000E+00  0.00000000E+00  0.00000000E+00
  0.00000000E+00  0.00000000E+00  0.00000000E+00
  0.00000000E+00  0.00000000E+00  0.00000000E+00
  0.00000000E+00  0.00000000E+00  0.00000000E+00
  0.00000000E+00  0.00000000E+00  0.00000000E+00
  0.00000000E+00  0.00000000E+00  0.00000000E+00
  0.00000000E+00  0.00000000E+00  0.00000000E+00
  0.00000000E+00  0.00000000E+00  0.00000000E+00
  0.00000000E+00  0.00000000E+00  0.00000000E+00
  0.00000000E+00  0.00000000E+00  0.00000000E+00
  0.00000000E+00  0.00000000E+00  0.00000000E+00
  0.00000000E+00  0.00000000E+00  0.00000000E+00
  0.00000000E+00  0.00000000E+00  0.00000000E+00
  0.00000000E+00  0.00000000E+00  0.00000000E+00
  0.00000000E+00  0.00000000E+00  0.00000000E+00
  0.00000000E+00  0.00000000E+00  0.00000000E+00
  0.00000000E+00  0.00000000E+00  0.00000000E+00
  0.00000000E+00  0.00000000E+00  0.00000000E+00
  0.00000000E+00  0.00000000E+00  0.00000000E+00
  0.00000000E+00  0.00000000E+00  0.00000000E+00
  0.00000000E+00  0.00000000E+00  0.00000000E+00
