Cr2CoPd_32sqshcp                        
   2.80000000000000     
    -0.9240110144820131   -1.6226941768899004    0.0057488381959660
     0.0113008686810367    0.0043289756357704   -2.9981473876258460
     2.7897368927517872   -1.6329299696442010   -0.0081224425389198
   Cr   Co   Pd
    16     8     8
Direct
  0.4942802727372573  0.3628680148658578  0.3245514630134400
  0.2421482572438566  0.3720897992169103  0.5864013840084341
  0.4725462638995298  0.3752367909329932  0.8379628481014350
  0.0460421527128054  0.3752391222539182  0.8247760360222295
  0.2528567582237269  0.8731405302125430  0.0686784003854553
  0.2425321137457971  0.8832078717502546  0.5893665544125499
  0.5122573468849425  0.8784104648763732  0.8232041425099252
  0.7331069183277639  0.8760789362362119  0.6024565969826533
  0.4986924145655878  0.1388597557142351  0.1638006094729917
  0.7459890102163882  0.1253908756205016  0.4317809650508111
  0.0183037222202372  0.1404288319954330  0.1683092309087671
  0.2613234085868567  0.1358054940638974  0.4255956540982208
  0.4726019585362934  0.1335483977470621  0.6743735857344267
  0.2435057077290379  0.1187917760319959  0.9032184344049216
  0.7502824540788070  0.6217822820951601  0.4232986859447281
  0.4795653534381406  0.6157916956876002  0.6716085383383552
  0.2472102066994646  0.3708056276867506  0.0822081472041801
  0.7477135496310496  0.3716576392106847  0.0889851934627942
 -0.0030836940977458  0.3580875433128963  0.3316979060998119
  0.0146693384157637  0.8774596459169630  0.8260900151828184
  0.0001757908795425  0.1185093952026001  0.6678532548032098
  0.4992584516845623  0.6087822646201980  0.1597185464233058
  0.0062367577730039  0.6345070562208878  0.6686171030745355
  0.2557325891589452  0.6289128003791743  0.9078860571938008
  0.7533359104332171  0.3746609231243385  0.5872102266143288
  0.4987575394115208  0.8819271880327720  0.3357550012258450
  0.7499126990845212  0.8789756936997286  0.0776128541778996
  0.0013816237353119  0.8856386216679882  0.3389122244606611
  0.7562468454722069  0.1373984397844470  0.9123202511717351
  0.0012354187540681  0.6165579253712107  0.1663384225820568
  0.2512031858017791  0.6137754226961583  0.4203794813463685
  0.7539796740157623  0.6156731737722690  0.9090321855872961
 
  0.00000000E+00  0.00000000E+00  0.00000000E+00
  0.00000000E+00  0.00000000E+00  0.00000000E+00
  0.00000000E+00  0.00000000E+00  0.00000000E+00
  0.00000000E+00  0.00000000E+00  0.00000000E+00
  0.00000000E+00  0.00000000E+00  0.00000000E+00
  0.00000000E+00  0.00000000E+00  0.00000000E+00
  0.00000000E+00  0.00000000E+00  0.00000000E+00
  0.00000000E+00  0.00000000E+00  0.00000000E+00
  0.00000000E+00  0.00000000E+00  0.00000000E+00
  0.00000000E+00  0.00000000E+00  0.00000000E+00
  0.00000000E+00  0.00000000E+00  0.00000000E+00
  0.00000000E+00  0.00000000E+00  0.00000000E+00
  0.00000000E+00  0.00000000E+00  0.00000000E+00
  0.00000000E+00  0.00000000E+00  0.00000000E+00
  0.00000000E+00  0.00000000E+00  0.00000000E+00
  0.00000000E+00  0.00000000E+00  0.00000000E+00
  0.00000000E+00  0.00000000E+00  0.00000000E+00
  0.00000000E+00  0.00000000E+00  0.00000000E+00
  0.00000000E+00  0.00000000E+00  0.00000000E+00
  0.00000000E+00  0.00000000E+00  0.00000000E+00
  0.00000000E+00  0.00000000E+00  0.00000000E+00
  0.00000000E+00  0.00000000E+00  0.00000000E+00
  0.00000000E+00  0.00000000E+00  0.00000000E+00
  0.00000000E+00  0.00000000E+00  0.00000000E+00
  0.00000000E+00  0.00000000E+00  0.00000000E+00
  0.00000000E+00  0.00000000E+00  0.00000000E+00
  0.00000000E+00  0.00000000E+00  0.00000000E+00
  0.00000000E+00  0.00000000E+00  0.00000000E+00
  0.00000000E+00  0.00000000E+00  0.00000000E+00
  0.00000000E+00  0.00000000E+00  0.00000000E+00
  0.00000000E+00  0.00000000E+00  0.00000000E+00
  0.00000000E+00  0.00000000E+00  0.00000000E+00
