FeNi2Pd_SQShcp                          
   1.00000000000000     
    -2.6247181162408850   -4.5278956859206216    0.0091426182131900
    -0.0110852389131926    0.0239114153233098   -8.4499843373788934
     7.7567482122712148   -4.4597132649171156    0.0230849024633128
   Fe   Ni   Pd
     8    16     8
Direct
  0.2575638921003938  0.3617900655221233  0.0779682677638729
  0.7446239868026728  0.3663011247865161  0.0808431298688974
  0.9983724464575328  0.3658194654553046  0.3389754641232126
  0.0107322475159846  0.8773446081381610  0.8333456706356892
  0.0111534752799046  0.1259192276834500  0.6544644338342749
  0.5022597941568050  0.6205884630977004  0.1664060656161218
  0.0079497914695620  0.6260483373125793  0.6650656592741861
  0.2571608451055818  0.6262925477299270  0.9117928223168850
  0.5051953870398291  0.3727526200455429  0.3271707446369621
  0.2507224750594396  0.3693859571701860  0.5881712994103488
  0.4798917782948161  0.3750064466788910  0.8355871191424069
  0.0156529104658542  0.3764537825482843  0.8356149670264952
  0.2499353427806133  0.8776605818185674  0.0772092288904309
  0.2461370276729568  0.8772036819267197  0.5957648468815891
  0.4856015219412175  0.8742878622891084  0.8292160253279904
  0.7486977842927438  0.8746097568221278  0.5986526595813921
  0.4942888178621404  0.1327343297935077  0.1668326629782763
  0.7470149403781711  0.1331813233384585  0.4167906551939345
  0.0042917242162375  0.1339047655755579  0.1675259674946259
  0.2547489177165050  0.1386220643232333  0.4160152693441130
  0.4881581737828971  0.1208216992619822  0.6601852986383100
  0.2518077826074644  0.1220542731265289  0.9110953483310937
  0.7510385031353748  0.6229888775821143  0.4211207009868688
  0.4913827478174784  0.6298996195021903  0.6693514196990178
  0.7417917373369424  0.3764012251904801  0.5890491097219192
  0.4980718692485824  0.8815197766143514  0.3426373716078777
  0.7457994002387694  0.8791587349783515  0.0790883024672418
  0.0000116396551655  0.8852600039808092  0.3447860991366867
  0.7495921107942835  0.1301071729781042  0.9025406144693963
  0.0049611926944399  0.6143458793630445  0.1659578880590153
  0.2573393625057625  0.6140643464894642  0.4233387979008174
  0.7480503735738840  0.6174713788766394  0.9074360896400507
 
  0.00000000E+00  0.00000000E+00  0.00000000E+00
  0.00000000E+00  0.00000000E+00  0.00000000E+00
  0.00000000E+00  0.00000000E+00  0.00000000E+00
  0.00000000E+00  0.00000000E+00  0.00000000E+00
  0.00000000E+00  0.00000000E+00  0.00000000E+00
  0.00000000E+00  0.00000000E+00  0.00000000E+00
  0.00000000E+00  0.00000000E+00  0.00000000E+00
  0.00000000E+00  0.00000000E+00  0.00000000E+00
  0.00000000E+00  0.00000000E+00  0.00000000E+00
  0.00000000E+00  0.00000000E+00  0.00000000E+00
  0.00000000E+00  0.00000000E+00  0.00000000E+00
  0.00000000E+00  0.00000000E+00  0.00000000E+00
  0.00000000E+00  0.00000000E+00  0.00000000E+00
  0.00000000E+00  0.00000000E+00  0.00000000E+00
  0.00000000E+00  0.00000000E+00  0.00000000E+00
  0.00000000E+00  0.00000000E+00  0.00000000E+00
  0.00000000E+00  0.00000000E+00  0.00000000E+00
  0.00000000E+00  0.00000000E+00  0.00000000E+00
  0.00000000E+00  0.00000000E+00  0.00000000E+00
  0.00000000E+00  0.00000000E+00  0.00000000E+00
  0.00000000E+00  0.00000000E+00  0.00000000E+00
  0.00000000E+00  0.00000000E+00  0.00000000E+00
  0.00000000E+00  0.00000000E+00  0.00000000E+00
  0.00000000E+00  0.00000000E+00  0.00000000E+00
  0.00000000E+00  0.00000000E+00  0.00000000E+00
  0.00000000E+00  0.00000000E+00  0.00000000E+00
  0.00000000E+00  0.00000000E+00  0.00000000E+00
  0.00000000E+00  0.00000000E+00  0.00000000E+00
  0.00000000E+00  0.00000000E+00  0.00000000E+00
  0.00000000E+00  0.00000000E+00  0.00000000E+00
  0.00000000E+00  0.00000000E+00  0.00000000E+00
  0.00000000E+00  0.00000000E+00  0.00000000E+00
