Ni2CoMn_32sqshcp                        
   2.80000000000000     
    -0.8913946691643220   -1.5471002664278171   -0.0003359144653886
    -0.0013406691714628    0.0001034471310818   -2.8950614372587067
     2.6888091828115512   -1.5555244366502368    0.0012619350598293
   Ni   Co   Mn
    16     8     8
Direct
  0.5008310733088600  0.3763078105312574  0.3302160842184728
  0.2470474449741246  0.3748666054362694  0.5825839971513451
  0.4939858718312082  0.3770476497606504  0.8347640723999107
  0.0050328644551606  0.3749151898991910  0.8338509985183912
  0.2470708292416041  0.8722373889768131  0.0825745928669586
  0.2537950188057494  0.8741541681521873  0.5813310342625800
  0.4966052686546326  0.8739741674151986  0.8314126390919498
  0.7506802747513449  0.8746145748072977  0.5835143428083417
  0.4970164756322444  0.1243204790984377  0.1678587325778765
  0.7508981680563822  0.1230734678181803  0.4158251821260863
 -0.0002709045249984  0.1249293052143527  0.1675623988070683
  0.2514875884821209  0.1230562767118257  0.4179407442057797
  0.4984105831053206  0.1250935527241465  0.6669904453109740
  0.2487620827528676  0.1253325202725874  0.9183974143955824
  0.7488953129550426  0.6244795296782909  0.4157500165606856
  0.4968047010106051  0.6250281716318687  0.6683844770519232
  0.2480194508293532  0.3810904804461302  0.0828388811273357
  0.7507610540759879  0.3824001724562764  0.0878391450635791
  0.0067645333574223  0.3747909214477868  0.3283383381241454
  0.0059418563103706  0.8738930463274062  0.8297241065569071
  0.0044291657461846  0.1195561365128434  0.6649716684455992
  0.4936823493947682  0.6270669192527961  0.1690827289216400
  0.9990415822928652  0.6287544108121026  0.6667649876858310
  0.2489335624875535  0.6250665616295380  0.9199698461480047
  0.7481831412542117  0.3747585267031940  0.5848883323672379
  0.5083400359299873  0.8726278906963449  0.3295413158133398
  0.7467148536552853  0.8711383112828489  0.0837112316620208
  0.9991503684197844  0.8683987405379501  0.3329518326227831
  0.7483341633109714  0.1244467227081952  0.9171666894475664
  0.0016970340514164  0.6294324682874665  0.1689840612190761
  0.2497011864324726  0.6264787572719698  0.4151422741729880
  0.7532530089590822  0.6266690754986454  0.9191273882680564
 
  0.00000000E+00  0.00000000E+00  0.00000000E+00
  0.00000000E+00  0.00000000E+00  0.00000000E+00
  0.00000000E+00  0.00000000E+00  0.00000000E+00
  0.00000000E+00  0.00000000E+00  0.00000000E+00
  0.00000000E+00  0.00000000E+00  0.00000000E+00
  0.00000000E+00  0.00000000E+00  0.00000000E+00
  0.00000000E+00  0.00000000E+00  0.00000000E+00
  0.00000000E+00  0.00000000E+00  0.00000000E+00
  0.00000000E+00  0.00000000E+00  0.00000000E+00
  0.00000000E+00  0.00000000E+00  0.00000000E+00
  0.00000000E+00  0.00000000E+00  0.00000000E+00
  0.00000000E+00  0.00000000E+00  0.00000000E+00
  0.00000000E+00  0.00000000E+00  0.00000000E+00
  0.00000000E+00  0.00000000E+00  0.00000000E+00
  0.00000000E+00  0.00000000E+00  0.00000000E+00
  0.00000000E+00  0.00000000E+00  0.00000000E+00
  0.00000000E+00  0.00000000E+00  0.00000000E+00
  0.00000000E+00  0.00000000E+00  0.00000000E+00
  0.00000000E+00  0.00000000E+00  0.00000000E+00
  0.00000000E+00  0.00000000E+00  0.00000000E+00
  0.00000000E+00  0.00000000E+00  0.00000000E+00
  0.00000000E+00  0.00000000E+00  0.00000000E+00
  0.00000000E+00  0.00000000E+00  0.00000000E+00
  0.00000000E+00  0.00000000E+00  0.00000000E+00
  0.00000000E+00  0.00000000E+00  0.00000000E+00
  0.00000000E+00  0.00000000E+00  0.00000000E+00
  0.00000000E+00  0.00000000E+00  0.00000000E+00
  0.00000000E+00  0.00000000E+00  0.00000000E+00
  0.00000000E+00  0.00000000E+00  0.00000000E+00
  0.00000000E+00  0.00000000E+00  0.00000000E+00
  0.00000000E+00  0.00000000E+00  0.00000000E+00
  0.00000000E+00  0.00000000E+00  0.00000000E+00
