Ternary_FeCoMnsqshcp                    
   2.60000000000000     
    -1.4211812019834573   -2.4640548085644260   -0.0000452812105170
    -1.4226691788367110    2.4649195077265462   -0.0000777182149675
    -0.0001253651342315    0.0000215199846167   -3.0082882930869514
   Fe   Co   Mn
    12    12    12
Direct
  0.4463979176530934  0.5554488554564537  0.3745039422563838
  0.4446703177562440  0.2233741976512811  0.3733903884361263
  0.7764483404027090  0.5549005995573402  0.3748794085742600
  0.7767175957211614  0.2215669433580264  0.3754927084369578
  0.7784548598535844  0.8897800815380890  0.3742121742244552
  0.4465522005507236  0.8902921456669258  0.8753952706045727
  0.5550873098740140  0.4414653857329142  0.1269145043525937
  0.2217629508141204  0.1099804613257568  0.1248439613605249
  0.8896963630685316  0.1114323335676209  0.1273497017556505
  0.5559302386662405  0.4408278040190366  0.6239561602701693
  0.2208377052639690  0.4409152036485571  0.6237363486000533
  0.8891802376064830  0.1116192723576697  0.6235503598311346
  0.4456207299956685  0.8889372534766721  0.3733608539315786
  0.1116894765609941  0.5554526557547170  0.3746275319452995
  0.4463696410314115  0.5568710565870414  0.8755142417971868
  0.4470683396572295  0.2238725868177541  0.8755334765512386
  0.1086176410113067  0.2234541302048741  0.8762284508357151
  0.1079113021845532  0.8838824632768300  0.8774723185192715
  0.5548749385577000  0.7783458098333225  0.1241039273309234
  0.8899638635706926  0.7786095481389851  0.1263211578755696
  0.5571516038818148  0.7794683130179917  0.6249456938701474
  0.2228231757109185  0.1118241918292548  0.6233817753926922
  0.2236778305800311  0.7781615537700064  0.6250421768857938
  0.8883828440308803  0.7780483245601295  0.6234285417665577
  0.1122120918380993  0.2233942594882402  0.3745258785903964
  0.1124275287350370  0.8903626369069011  0.3743905765498077
  0.1130122534669260  0.5552900670140795  0.8734884029269177
  0.7749140554179852  0.5527448763486172  0.8752798583282346
  0.7765456535359243  0.2224088682375066  0.8755400286137376
  0.7769810547621250  0.8914834919131833  0.8748541859366682
  0.5547750827682031  0.1121636752274277  0.1258940191279838
  0.2211875400290488  0.4414886806622986  0.1253708552127435
  0.2215925288626187  0.7808293068275378  0.1254965715568426
  0.8870846591679542  0.4444019285246061  0.1272841797608364
  0.5562381149469297  0.1128727066994183  0.6255430620750124
  0.8871420124650834  0.4440283310028981  0.6241473059159217
 
  0.00000000E+00  0.00000000E+00  0.00000000E+00
  0.00000000E+00  0.00000000E+00  0.00000000E+00
  0.00000000E+00  0.00000000E+00  0.00000000E+00
  0.00000000E+00  0.00000000E+00  0.00000000E+00
  0.00000000E+00  0.00000000E+00  0.00000000E+00
  0.00000000E+00  0.00000000E+00  0.00000000E+00
  0.00000000E+00  0.00000000E+00  0.00000000E+00
  0.00000000E+00  0.00000000E+00  0.00000000E+00
  0.00000000E+00  0.00000000E+00  0.00000000E+00
  0.00000000E+00  0.00000000E+00  0.00000000E+00
  0.00000000E+00  0.00000000E+00  0.00000000E+00
  0.00000000E+00  0.00000000E+00  0.00000000E+00
  0.00000000E+00  0.00000000E+00  0.00000000E+00
  0.00000000E+00  0.00000000E+00  0.00000000E+00
  0.00000000E+00  0.00000000E+00  0.00000000E+00
  0.00000000E+00  0.00000000E+00  0.00000000E+00
  0.00000000E+00  0.00000000E+00  0.00000000E+00
  0.00000000E+00  0.00000000E+00  0.00000000E+00
  0.00000000E+00  0.00000000E+00  0.00000000E+00
  0.00000000E+00  0.00000000E+00  0.00000000E+00
  0.00000000E+00  0.00000000E+00  0.00000000E+00
  0.00000000E+00  0.00000000E+00  0.00000000E+00
  0.00000000E+00  0.00000000E+00  0.00000000E+00
  0.00000000E+00  0.00000000E+00  0.00000000E+00
  0.00000000E+00  0.00000000E+00  0.00000000E+00
  0.00000000E+00  0.00000000E+00  0.00000000E+00
  0.00000000E+00  0.00000000E+00  0.00000000E+00
  0.00000000E+00  0.00000000E+00  0.00000000E+00
  0.00000000E+00  0.00000000E+00  0.00000000E+00
  0.00000000E+00  0.00000000E+00  0.00000000E+00
  0.00000000E+00  0.00000000E+00  0.00000000E+00
  0.00000000E+00  0.00000000E+00  0.00000000E+00
  0.00000000E+00  0.00000000E+00  0.00000000E+00
  0.00000000E+00  0.00000000E+00  0.00000000E+00
  0.00000000E+00  0.00000000E+00  0.00000000E+00
  0.00000000E+00  0.00000000E+00  0.00000000E+00
