NiCrCo2_SQShcp                          
   1.00000000000000     
    -2.5112935586761727   -4.3116259902788681   -0.0045906590862979
    -0.0041357762362436   -0.0062195583106874   -8.0456865102304995
     7.5098995864800582   -4.2978193783328118    0.0004599464630758
   Ni   Cr   Co
     8     8    16
Direct
  0.2496898904632049  0.3734604222217656  0.0824544941920864
  0.7476525506069585  0.3728026267778556  0.0852404798183000
  0.9959622961266328  0.3743710174857755  0.3342875983713176
  0.0018332175065820  0.8751852571468723  0.8321756306494826
  0.0005666627202632  0.1249558176361483  0.6660303589165564
  0.5020576106279654  0.6264818245951220  0.1675041010171034
  0.0007597699736789  0.6252610953581399  0.6649201682335006
  0.2511308599454044  0.6251158007593399  0.9158954635044775
  0.7464507068782151  0.3763186671854775  0.5860985418321988
  0.4949605795684263  0.8777243866207536  0.3323335700911275
  0.7518383988939332  0.8791807633804134  0.0829461785284534
  0.9960786573192421  0.8832678976871121  0.3337863151962610
  0.7499991184420255  0.1269582711974449  0.9152990193675089
  0.0075908467764216  0.6292126129740426  0.1675756574034619
  0.2528961827027362  0.6185424096460131  0.4168333708203774
  0.7514755203679613  0.6207693043150503  0.9151693721647954
  0.5001414365737182  0.3735948015234674  0.3345378227061392
  0.2484595790287138  0.3745546736189089  0.5860326819049706
  0.4953918660841399  0.3734974386981137  0.8330659221401492
  0.0013052864944823  0.3737775519283114  0.8314250874248360
  0.2550078251202735  0.8758979831099716  0.0811654201877408
  0.2517755723225774  0.8746418817697733  0.5815605138655359
  0.4983780688794793  0.8771718856658193  0.8327377477017440
  0.7479450089885862  0.8745877221749148  0.5832884677230119
  0.4988216677422227  0.1236321198833919  0.1684092802549728
  0.7473031494320937  0.1245582967956229  0.4173663485836187
  0.0035712650495711  0.1195626644846371  0.1675546721565829
  0.2523945359803243  0.1261053576502924  0.4193409758774037
  0.5010946555579356  0.1249226603144742  0.6652185917864198
  0.2488078857159238  0.1241098009275900  0.9183841168724759
  0.7476991501061014  0.6244056198355634  0.4163342069526806
  0.5009601780041562  0.6253713666318277  0.6650278237547170
 
  0.00000000E+00  0.00000000E+00  0.00000000E+00
  0.00000000E+00  0.00000000E+00  0.00000000E+00
  0.00000000E+00  0.00000000E+00  0.00000000E+00
  0.00000000E+00  0.00000000E+00  0.00000000E+00
  0.00000000E+00  0.00000000E+00  0.00000000E+00
  0.00000000E+00  0.00000000E+00  0.00000000E+00
  0.00000000E+00  0.00000000E+00  0.00000000E+00
  0.00000000E+00  0.00000000E+00  0.00000000E+00
  0.00000000E+00  0.00000000E+00  0.00000000E+00
  0.00000000E+00  0.00000000E+00  0.00000000E+00
  0.00000000E+00  0.00000000E+00  0.00000000E+00
  0.00000000E+00  0.00000000E+00  0.00000000E+00
  0.00000000E+00  0.00000000E+00  0.00000000E+00
  0.00000000E+00  0.00000000E+00  0.00000000E+00
  0.00000000E+00  0.00000000E+00  0.00000000E+00
  0.00000000E+00  0.00000000E+00  0.00000000E+00
  0.00000000E+00  0.00000000E+00  0.00000000E+00
  0.00000000E+00  0.00000000E+00  0.00000000E+00
  0.00000000E+00  0.00000000E+00  0.00000000E+00
  0.00000000E+00  0.00000000E+00  0.00000000E+00
  0.00000000E+00  0.00000000E+00  0.00000000E+00
  0.00000000E+00  0.00000000E+00  0.00000000E+00
  0.00000000E+00  0.00000000E+00  0.00000000E+00
  0.00000000E+00  0.00000000E+00  0.00000000E+00
  0.00000000E+00  0.00000000E+00  0.00000000E+00
  0.00000000E+00  0.00000000E+00  0.00000000E+00
  0.00000000E+00  0.00000000E+00  0.00000000E+00
  0.00000000E+00  0.00000000E+00  0.00000000E+00
  0.00000000E+00  0.00000000E+00  0.00000000E+00
  0.00000000E+00  0.00000000E+00  0.00000000E+00
  0.00000000E+00  0.00000000E+00  0.00000000E+00
  0.00000000E+00  0.00000000E+00  0.00000000E+00
