NiCr2Mn_32sqshcp                        
   2.80000000000000     
    -1.0302331845911492   -1.4314116192882813    0.0149060726017769
    -0.0044991918400836    0.0327039791728709   -2.8614822146256413
     3.0921598314649077   -1.4293192734012328    0.0186825688956931
   Ni   Cr   Mn
     8    16     8
Direct
  0.2469845641118389  0.3733163270847149  0.0597260779625933
  0.7457399316180904  0.3700670251223236  0.0680114361942925
  0.9230244554862280  0.3704905962580951  0.3296235353714149
  0.9140644886169326  0.8712777977908572  0.8155967648406771
  0.0532814711350473  0.1236629000931480  0.6862958455548053
  0.5909213660963265  0.6251863566391352  0.1762772845867865
  0.0493367095624002  0.6292741695039630  0.6790578743013317
  0.3059450014381316  0.6348591009713862  0.9315972606783806
  0.4225990485115849  0.3872238866430583  0.3175733942477155
  0.2011756952761486  0.3730524111584879  0.5720577013421144
  0.4362099294373875  0.3711757374535627  0.8134906938818233
  0.9396437252118394  0.3806129838386693  0.8202018517245483
  0.1908502444584776  0.8812490732598880  0.0662831369672773
  0.1870813929760477  0.8756182946463588  0.5523632885262132
  0.4062318732784588  0.8807696191231733  0.7990469337202136
  0.6871348798812990  0.8729728414278052  0.5595961654120933
  0.5627467740256958  0.1334905873425552  0.1905785880742581
  0.7905236579155929  0.1138378738042225  0.4329313961782658
  0.0627771741154300  0.1283452508299028  0.1835132237824953
  0.3002093759643295  0.1283753402343965  0.4376935131496478
  0.5616907126104350  0.1204434083801836  0.6875511469288642
  0.3229908066840234  0.1142880040017336  0.9369962259749587
  0.7836933227114117  0.6322932724037529  0.4314670013910947
  0.5627025207966894  0.6294365896011856  0.6988705989529903
  0.7021867314300287  0.3768882339708381  0.5677730311597747
  0.4148197390644429  0.8669417442595537  0.3055584656635506
  0.6864512788440666  0.8793489705664301  0.0516000126742285
  0.9175964627157323  0.8746942107939735  0.3058246683326312
  0.8292431874358963  0.1299517926010893  0.9299994130852862
  0.0991691481026949  0.6070005152559300  0.1969136383839580
  0.2913180430586162  0.6197239731760602  0.4548614233467158
  0.8116562874286534  0.6241311117635945  0.9410684076089904
 
  0.00000000E+00  0.00000000E+00  0.00000000E+00
  0.00000000E+00  0.00000000E+00  0.00000000E+00
  0.00000000E+00  0.00000000E+00  0.00000000E+00
  0.00000000E+00  0.00000000E+00  0.00000000E+00
  0.00000000E+00  0.00000000E+00  0.00000000E+00
  0.00000000E+00  0.00000000E+00  0.00000000E+00
  0.00000000E+00  0.00000000E+00  0.00000000E+00
  0.00000000E+00  0.00000000E+00  0.00000000E+00
  0.00000000E+00  0.00000000E+00  0.00000000E+00
  0.00000000E+00  0.00000000E+00  0.00000000E+00
  0.00000000E+00  0.00000000E+00  0.00000000E+00
  0.00000000E+00  0.00000000E+00  0.00000000E+00
  0.00000000E+00  0.00000000E+00  0.00000000E+00
  0.00000000E+00  0.00000000E+00  0.00000000E+00
  0.00000000E+00  0.00000000E+00  0.00000000E+00
  0.00000000E+00  0.00000000E+00  0.00000000E+00
  0.00000000E+00  0.00000000E+00  0.00000000E+00
  0.00000000E+00  0.00000000E+00  0.00000000E+00
  0.00000000E+00  0.00000000E+00  0.00000000E+00
  0.00000000E+00  0.00000000E+00  0.00000000E+00
  0.00000000E+00  0.00000000E+00  0.00000000E+00
  0.00000000E+00  0.00000000E+00  0.00000000E+00
  0.00000000E+00  0.00000000E+00  0.00000000E+00
  0.00000000E+00  0.00000000E+00  0.00000000E+00
  0.00000000E+00  0.00000000E+00  0.00000000E+00
  0.00000000E+00  0.00000000E+00  0.00000000E+00
  0.00000000E+00  0.00000000E+00  0.00000000E+00
  0.00000000E+00  0.00000000E+00  0.00000000E+00
  0.00000000E+00  0.00000000E+00  0.00000000E+00
  0.00000000E+00  0.00000000E+00  0.00000000E+00
  0.00000000E+00  0.00000000E+00  0.00000000E+00
  0.00000000E+00  0.00000000E+00  0.00000000E+00
