Ni2CrPd_32sqshcp                        
   2.80000000000000     
    -0.9392552984524198   -1.6148776669124991    0.0053881530440987
    -0.0005735711200606    0.0105180623240630   -2.9865895348545166
     2.7570864922989640   -1.5795778231662636    0.0061258497960792
   Ni   Cr   Pd
    16     8     8
Direct
  0.5018812013132293  0.3704723696474217  0.3364510784667715
  0.2479507313268641  0.3680786807099092  0.5936100441884335
  0.4773301300004787  0.3759686759374757  0.8357159203471860
  0.0130179668585449  0.3763043854733544  0.8428972134633436
  0.2512020170026683  0.8748854811695963  0.0750258232902602
  0.2451732627342227  0.8777031155703899  0.5919540902353227
  0.4850226867141074  0.8755858838462418  0.8250049959647242
  0.7548157468388029  0.8778383254495749  0.5960378716486545
  0.4970402300600204  0.1348071358216832  0.1676465237590899
  0.7530926779860940  0.1346087371944566  0.4190719801228463
  0.0085403926395639  0.1365273812749161  0.1655313958946586
  0.2405488594364173  0.1412228414695370  0.4168121223523017
  0.4842211298779963  0.1220254968476686  0.6584510690662042
  0.2493536429876949  0.1236202893378220  0.9100649195769784
  0.7484798995415963  0.6203765350542523  0.4170158012752199
  0.4963008320018198  0.6317257313495774  0.6648341534356680
  0.2728527311510759  0.3720797962882558  0.0811062958315231
  0.7446057899270596  0.3711496523883756  0.0886390648794422
  0.9864717224568392  0.3672781307247426  0.3294974723289210
  0.0190394200045693  0.8714961004729275  0.8314947561549771
  0.0162118403983153  0.1200616868588060  0.6597233396062885
  0.4987585896652094  0.5928493087441050  0.1620995392126380
  0.0230197942704010  0.6353070751091837  0.6780789007389910
  0.2528739882877265  0.6301826066327795  0.9029650116689173
  0.7522794536816825  0.3775169179461499  0.5924106695545117
  0.4958572842002349  0.8801831976709910  0.3405315559177589
  0.7445031125071251  0.8783178821072504  0.0776550438043343
  0.9980015145727784  0.8846863287788790  0.3425204987801708
  0.7484064895731680  0.1307062791680475  0.9023216983502469
  0.0068362700194981  0.6190286176286411  0.1631684871912730
  0.2483250700700173  0.6106075874103180  0.4239604067274575
  0.7379855218941856  0.6167977659166772  0.9077022561648853
 
  0.00000000E+00  0.00000000E+00  0.00000000E+00
  0.00000000E+00  0.00000000E+00  0.00000000E+00
  0.00000000E+00  0.00000000E+00  0.00000000E+00
  0.00000000E+00  0.00000000E+00  0.00000000E+00
  0.00000000E+00  0.00000000E+00  0.00000000E+00
  0.00000000E+00  0.00000000E+00  0.00000000E+00
  0.00000000E+00  0.00000000E+00  0.00000000E+00
  0.00000000E+00  0.00000000E+00  0.00000000E+00
  0.00000000E+00  0.00000000E+00  0.00000000E+00
  0.00000000E+00  0.00000000E+00  0.00000000E+00
  0.00000000E+00  0.00000000E+00  0.00000000E+00
  0.00000000E+00  0.00000000E+00  0.00000000E+00
  0.00000000E+00  0.00000000E+00  0.00000000E+00
  0.00000000E+00  0.00000000E+00  0.00000000E+00
  0.00000000E+00  0.00000000E+00  0.00000000E+00
  0.00000000E+00  0.00000000E+00  0.00000000E+00
  0.00000000E+00  0.00000000E+00  0.00000000E+00
  0.00000000E+00  0.00000000E+00  0.00000000E+00
  0.00000000E+00  0.00000000E+00  0.00000000E+00
  0.00000000E+00  0.00000000E+00  0.00000000E+00
  0.00000000E+00  0.00000000E+00  0.00000000E+00
  0.00000000E+00  0.00000000E+00  0.00000000E+00
  0.00000000E+00  0.00000000E+00  0.00000000E+00
  0.00000000E+00  0.00000000E+00  0.00000000E+00
  0.00000000E+00  0.00000000E+00  0.00000000E+00
  0.00000000E+00  0.00000000E+00  0.00000000E+00
  0.00000000E+00  0.00000000E+00  0.00000000E+00
  0.00000000E+00  0.00000000E+00  0.00000000E+00
  0.00000000E+00  0.00000000E+00  0.00000000E+00
  0.00000000E+00  0.00000000E+00  0.00000000E+00
  0.00000000E+00  0.00000000E+00  0.00000000E+00
  0.00000000E+00  0.00000000E+00  0.00000000E+00
