FeCrPd2_32sqshcp                        
   2.80000000000000     
    -0.9833551148055583   -1.6775269370237558   -0.0005780523029164
    -0.0083932825920655    0.0035461437306496   -3.1410542430405739
     2.8967075186222986   -1.6464113096240272    0.0095905660973045
   Fe   Cr   Pd
     8     8    16
Direct
  0.2383802229835675  0.3805463949592365  0.0840006665627987
  0.7569592893806839  0.3916695005940116  0.0887721397829944
  0.9936713727824326  0.3814469017115631  0.3203062080879615
  0.0087655057542180  0.8530580505146628  0.8423746304435847
  0.9960742120679068  0.1280007667245201  0.6620985814677521
  0.4950278652571927  0.6290722830127616  0.1644530445482086
  1.0004233265203759  0.6289559923630189  0.6788239331388302
  0.2582254302367980  0.6214479983411406  0.9282596793654631
  0.7447299979561794  0.3775072549191920  0.5821711166336578
  0.5112780430411077  0.8788566506698167  0.3332384682540602
  0.7561638231171985  0.8560434859358720  0.0958753257766429
  0.9891919971731554  0.8765531797881360  0.3310579538273039
  0.7572867991966634  0.1218627243486100  0.9078821807762686
  0.9844027746734837  0.6463167273320890  0.1679809542053009
  0.2452970305631780  0.6201210634447835  0.4079364002810685
  0.7643667111475630  0.6166908229979620  0.9223377911196401
  0.4927995132947203  0.3849646401486477  0.3244272131165713
  0.2317541399224225  0.3796769965007762  0.5755276426590320
  0.5002823091575904  0.3757061561080116  0.8461625649289024
  0.9994217508700570  0.3800689646721602  0.8368724741841832
  0.2537903761384198  0.8668738875440619  0.0912070820831885
  0.2489848452374137  0.8656014669710601  0.5802528297374721
  0.5184981879711551  0.8657367785397000  0.8462626833304988
  0.7596401418565800  0.8760506758604347  0.5873173049641610
  0.5051404841541531  0.1297409752650908  0.1524640976463058
  0.7548963564634401  0.1304749952325422  0.4132871280015439
  0.9949998090804971  0.1272391396882553  0.1578126396423945
  0.2483592851162298  0.1187225866779130  0.4106033162032565
  0.5031766237029384  0.1288384802472543  0.6666714852736273
  0.2361858302373022  0.1150408393713299  0.9062135636233617
  0.7534060014423627  0.6286354965365870  0.4138471851811263
  0.4984199435030333  0.6184781229788076  0.6735017151528654
 
  0.00000000E+00  0.00000000E+00  0.00000000E+00
  0.00000000E+00  0.00000000E+00  0.00000000E+00
  0.00000000E+00  0.00000000E+00  0.00000000E+00
  0.00000000E+00  0.00000000E+00  0.00000000E+00
  0.00000000E+00  0.00000000E+00  0.00000000E+00
  0.00000000E+00  0.00000000E+00  0.00000000E+00
  0.00000000E+00  0.00000000E+00  0.00000000E+00
  0.00000000E+00  0.00000000E+00  0.00000000E+00
  0.00000000E+00  0.00000000E+00  0.00000000E+00
  0.00000000E+00  0.00000000E+00  0.00000000E+00
  0.00000000E+00  0.00000000E+00  0.00000000E+00
  0.00000000E+00  0.00000000E+00  0.00000000E+00
  0.00000000E+00  0.00000000E+00  0.00000000E+00
  0.00000000E+00  0.00000000E+00  0.00000000E+00
  0.00000000E+00  0.00000000E+00  0.00000000E+00
  0.00000000E+00  0.00000000E+00  0.00000000E+00
  0.00000000E+00  0.00000000E+00  0.00000000E+00
  0.00000000E+00  0.00000000E+00  0.00000000E+00
  0.00000000E+00  0.00000000E+00  0.00000000E+00
  0.00000000E+00  0.00000000E+00  0.00000000E+00
  0.00000000E+00  0.00000000E+00  0.00000000E+00
  0.00000000E+00  0.00000000E+00  0.00000000E+00
  0.00000000E+00  0.00000000E+00  0.00000000E+00
  0.00000000E+00  0.00000000E+00  0.00000000E+00
  0.00000000E+00  0.00000000E+00  0.00000000E+00
  0.00000000E+00  0.00000000E+00  0.00000000E+00
  0.00000000E+00  0.00000000E+00  0.00000000E+00
  0.00000000E+00  0.00000000E+00  0.00000000E+00
  0.00000000E+00  0.00000000E+00  0.00000000E+00
  0.00000000E+00  0.00000000E+00  0.00000000E+00
  0.00000000E+00  0.00000000E+00  0.00000000E+00
  0.00000000E+00  0.00000000E+00  0.00000000E+00
