Fe2NiCr_SQShcp                          
   1.00000000000000     
    -2.5097441650593710   -4.3253502144512286    0.0030851524773725
    -0.0213048932193065    0.0177479652231258   -8.0810560537011327
     7.5175666448266245   -4.3187152965038909    0.0289025039035393
   Fe   Ni   Cr
    16     8     8
Direct
  0.5023903698585123  0.3731187764255705  0.3360936764667498
  0.2541775192083131  0.3728389465358017  0.5840329234568568
  0.4998429099281649  0.3760163938895336  0.8359168754778070
  0.0122477443893506  0.3767131196268038  0.8336945381623514
  0.2533233974126132  0.8774840079164414  0.0786062429438738
  0.2468808921844703  0.8740513473070067  0.5789007168078245
  0.4965503444602849  0.8800992379848168  0.8355582143616007
  0.7388213711850727  0.8760056716620074  0.5831034835311244
  0.4923156553534439  0.1183085393916216  0.1673539744297739
  0.7457810397768332  0.1211447601356824  0.4170812932006174
  0.0003849539891227  0.1185736442689258  0.1672011210063281
  0.2523644117127384  0.1270880228976043  0.4143436036207512
  0.4981933006939463  0.1239013799658727  0.6626983356506816
  0.2466339642492240  0.1223738352979972  0.9164910587526454
  0.7461251967025941  0.6260987925233025  0.4227816865514564
  0.5056139274285261  0.6265380391953036  0.6668226805585905
  0.2514594897252638  0.3736097664685844  0.0847792001355547
  0.7507408109435271  0.3701272151643660  0.0876651754044850
  0.9980431648992656  0.3722657000119794  0.3344847213544888
  0.9992503702971751  0.8764629047604318  0.8299410259473980
  0.0016616774244443  0.1247993998641837  0.6639243539825677
  0.5076357663480060  0.6261279035991073  0.1660815877683309
  0.0033061097103024  0.6262400334136663  0.6678952505544915
  0.2559139866347594  0.6272766509112595  0.9171944349862708
  0.7472407405865101  0.3744449958525439  0.5850329351817607
  0.4855435082294803  0.8779470756662736  0.3316989095774833
  0.7386528425039270  0.8851337880446177  0.0791696076165446
  0.9880548569926768  0.8815483143439763  0.3291664720650322
  0.7486927733988519  0.1295766108766803  0.9113608975203276
  0.0139389543843461  0.6296633111562315  0.1719361410148516
  0.2611139275088697  0.6159658046513768  0.4228488507340323
  0.7571040218793904  0.6184560101904016  0.9161400111774108
 
  0.00000000E+00  0.00000000E+00  0.00000000E+00
  0.00000000E+00  0.00000000E+00  0.00000000E+00
  0.00000000E+00  0.00000000E+00  0.00000000E+00
  0.00000000E+00  0.00000000E+00  0.00000000E+00
  0.00000000E+00  0.00000000E+00  0.00000000E+00
  0.00000000E+00  0.00000000E+00  0.00000000E+00
  0.00000000E+00  0.00000000E+00  0.00000000E+00
  0.00000000E+00  0.00000000E+00  0.00000000E+00
  0.00000000E+00  0.00000000E+00  0.00000000E+00
  0.00000000E+00  0.00000000E+00  0.00000000E+00
  0.00000000E+00  0.00000000E+00  0.00000000E+00
  0.00000000E+00  0.00000000E+00  0.00000000E+00
  0.00000000E+00  0.00000000E+00  0.00000000E+00
  0.00000000E+00  0.00000000E+00  0.00000000E+00
  0.00000000E+00  0.00000000E+00  0.00000000E+00
  0.00000000E+00  0.00000000E+00  0.00000000E+00
  0.00000000E+00  0.00000000E+00  0.00000000E+00
  0.00000000E+00  0.00000000E+00  0.00000000E+00
  0.00000000E+00  0.00000000E+00  0.00000000E+00
  0.00000000E+00  0.00000000E+00  0.00000000E+00
  0.00000000E+00  0.00000000E+00  0.00000000E+00
  0.00000000E+00  0.00000000E+00  0.00000000E+00
  0.00000000E+00  0.00000000E+00  0.00000000E+00
  0.00000000E+00  0.00000000E+00  0.00000000E+00
  0.00000000E+00  0.00000000E+00  0.00000000E+00
  0.00000000E+00  0.00000000E+00  0.00000000E+00
  0.00000000E+00  0.00000000E+00  0.00000000E+00
  0.00000000E+00  0.00000000E+00  0.00000000E+00
  0.00000000E+00  0.00000000E+00  0.00000000E+00
  0.00000000E+00  0.00000000E+00  0.00000000E+00
  0.00000000E+00  0.00000000E+00  0.00000000E+00
  0.00000000E+00  0.00000000E+00  0.00000000E+00
