Fe2CoPd_32sqshcp                        
   2.80000000000000     
    -0.9971523651114693   -1.7239001519250434   -0.0006666182199717
     0.1236191835626030   -0.0706318258851535   -3.0348818556419239
     2.6506564066089195   -1.5292783392005429   -0.1452988415320050
   Fe   Co   Pd
    16     8     8
Direct
  0.4990638508727702  0.3848707724921966  0.3302689135191497
  0.2411837556251852  0.3834979827529250  0.6037704074440204
  0.4868375562320472  0.3590322422164577  0.8528554379226704
  0.0118033152761631  0.3591619535037934  0.8515851275277890
  0.2501376029222567  0.8690213294186293  0.1419811218104317
  0.2445802796588530  0.8898294545026021  0.6573630880927519
  0.4835944457420546  0.8530756401621167  0.8972536881350931
  0.7498537921928871  0.8867906075720232  0.6659184938793433
  0.4950965338031936  0.1239264979463727  0.1383471495377587
  0.7503143167663632  0.1538847621152905  0.3848734833649399
  0.0079317827613149  0.1252647767243856  0.1397105578217241
  0.2504860954806915  0.1521681229025842  0.3822462195901587
  0.4936558430853786  0.1346285921618341  0.6305839644877321
  0.2455441504217564  0.1082867907073937  0.8825147906175239
  0.7567869988111502  0.6323257267644741  0.3701264368352579
  0.4923726575260139  0.6462344687013796  0.6281405005327567
  0.2529674636661756  0.3549407729335080  0.0907264109245597
  0.7455366045046696  0.3562342361340231  0.0955220685942903
  0.0056644346997039  0.3764775341731361  0.3391330700241126
  0.0243994084959531  0.8544797092833670  0.8948270970123205
  0.0096340653044770  0.1326833288702612  0.6245505134320075
  0.4922590268939161  0.6049033356458449  0.1182325830038319
  0.0001153624795591  0.6529508264016120  0.6241399125247861
  0.2502645914978312  0.6030504759997211  0.8584600129173506
  0.7443612328051991  0.3926665071310945  0.5924792354447362
  0.5029413897772015  0.8989597043454923  0.4075713918045792
  0.7453802050767878  0.8665917566911812  0.1379853928527451
  0.9976933689032915  0.8979801047717751  0.4052797377330639
  0.7500871725087067  0.1070454125557190  0.8859330275074661
  0.0156046489450569  0.6071866483154926  0.1187963526720400
  0.2580341441127175  0.6273913299766359  0.3798254785743046
  0.7458139031506565  0.6044585961266742  0.8689983338586970
 
  0.00000000E+00  0.00000000E+00  0.00000000E+00
  0.00000000E+00  0.00000000E+00  0.00000000E+00
  0.00000000E+00  0.00000000E+00  0.00000000E+00
  0.00000000E+00  0.00000000E+00  0.00000000E+00
  0.00000000E+00  0.00000000E+00  0.00000000E+00
  0.00000000E+00  0.00000000E+00  0.00000000E+00
  0.00000000E+00  0.00000000E+00  0.00000000E+00
  0.00000000E+00  0.00000000E+00  0.00000000E+00
  0.00000000E+00  0.00000000E+00  0.00000000E+00
  0.00000000E+00  0.00000000E+00  0.00000000E+00
  0.00000000E+00  0.00000000E+00  0.00000000E+00
  0.00000000E+00  0.00000000E+00  0.00000000E+00
  0.00000000E+00  0.00000000E+00  0.00000000E+00
  0.00000000E+00  0.00000000E+00  0.00000000E+00
  0.00000000E+00  0.00000000E+00  0.00000000E+00
  0.00000000E+00  0.00000000E+00  0.00000000E+00
  0.00000000E+00  0.00000000E+00  0.00000000E+00
  0.00000000E+00  0.00000000E+00  0.00000000E+00
  0.00000000E+00  0.00000000E+00  0.00000000E+00
  0.00000000E+00  0.00000000E+00  0.00000000E+00
  0.00000000E+00  0.00000000E+00  0.00000000E+00
  0.00000000E+00  0.00000000E+00  0.00000000E+00
  0.00000000E+00  0.00000000E+00  0.00000000E+00
  0.00000000E+00  0.00000000E+00  0.00000000E+00
  0.00000000E+00  0.00000000E+00  0.00000000E+00
  0.00000000E+00  0.00000000E+00  0.00000000E+00
  0.00000000E+00  0.00000000E+00  0.00000000E+00
  0.00000000E+00  0.00000000E+00  0.00000000E+00
  0.00000000E+00  0.00000000E+00  0.00000000E+00
  0.00000000E+00  0.00000000E+00  0.00000000E+00
  0.00000000E+00  0.00000000E+00  0.00000000E+00
  0.00000000E+00  0.00000000E+00  0.00000000E+00
