NiCr2Pd_32sqshcp                        
   2.80000000000000     
    -0.9150786959074219   -1.6264520107338416   -0.0028950000193167
    -0.0184509861831101    0.0052097737871599   -2.9878596576850089
     2.7858761616712342   -1.6497512498336784    0.0197564489676384
   Ni   Cr   Pd
     8    16     8
Direct
  0.2512785800173181  0.3695890213265575  0.0807857316534124
  0.7485635011833572  0.3685454047753995  0.0905992324056599
  0.9966840734907835  0.3648330514293240  0.3314343792750709
  0.0003174036605276  0.8771486624965229  0.8235516418974120
  0.9923320930377856  0.1199604837038680  0.6616074924083792
  0.5039995443448494  0.6169094888997881  0.1687504788248350
  0.0101945687814850  0.6265694411596430  0.6710373294501097
  0.2498264330538396  0.6272245684625201  0.9129773056645620
  0.4953790931106231  0.3452507456723461  0.3271309660551714
  0.2473111084993712  0.3669698358430445  0.5832289019822248
  0.4635393143622359  0.3755734993805958  0.8335858452253617
  0.0483965694155680  0.3729970756186789  0.8236006077149475
  0.2627272339880835  0.8695840522476315  0.0739827858607935
  0.2611983202835806  0.8834463639912987  0.5900630574624149
  0.4861375870346190  0.8854150660429589  0.8473001479840720
  0.7344347262770065  0.8581867786705082  0.5903263429863863
  0.4729192625668192  0.1241791850856783  0.1551496250856920
  0.7322839362147274  0.1344429317536480  0.4222236345539130
  0.0274474365310341  0.1345882455049252  0.1620988525660879
  0.2618986698110070  0.1407819544462930  0.4226580119648472
  0.4802695637721985  0.1229707973528068  0.6649667798834704
  0.2405090100855490  0.1170066248725934  0.8955122188467117
  0.7549508029216314  0.6362299822919359  0.4357170055827839
  0.4919376169199394  0.6468121998407416  0.6720167990863692
  0.7501961371508982  0.3795828986182501  0.5877802473836129
  0.5030069151827541  0.8810695098928394  0.3346382895926069
  0.7645108222417096  0.8824699426524063  0.0780634851748665
  0.0084086859948635  0.8896313338343913  0.3400866844136561
  0.7500255152176577  0.1384607594489152  0.9109983807478121
  0.0039136173357545  0.6190149244621307  0.1713667340583825
  0.2591881393341564  0.6125649436685267  0.4245340782546474
  0.7462137181782601  0.6119902265532258  0.9122269259537350
 
  0.00000000E+00  0.00000000E+00  0.00000000E+00
  0.00000000E+00  0.00000000E+00  0.00000000E+00
  0.00000000E+00  0.00000000E+00  0.00000000E+00
  0.00000000E+00  0.00000000E+00  0.00000000E+00
  0.00000000E+00  0.00000000E+00  0.00000000E+00
  0.00000000E+00  0.00000000E+00  0.00000000E+00
  0.00000000E+00  0.00000000E+00  0.00000000E+00
  0.00000000E+00  0.00000000E+00  0.00000000E+00
  0.00000000E+00  0.00000000E+00  0.00000000E+00
  0.00000000E+00  0.00000000E+00  0.00000000E+00
  0.00000000E+00  0.00000000E+00  0.00000000E+00
  0.00000000E+00  0.00000000E+00  0.00000000E+00
  0.00000000E+00  0.00000000E+00  0.00000000E+00
  0.00000000E+00  0.00000000E+00  0.00000000E+00
  0.00000000E+00  0.00000000E+00  0.00000000E+00
  0.00000000E+00  0.00000000E+00  0.00000000E+00
  0.00000000E+00  0.00000000E+00  0.00000000E+00
  0.00000000E+00  0.00000000E+00  0.00000000E+00
  0.00000000E+00  0.00000000E+00  0.00000000E+00
  0.00000000E+00  0.00000000E+00  0.00000000E+00
  0.00000000E+00  0.00000000E+00  0.00000000E+00
  0.00000000E+00  0.00000000E+00  0.00000000E+00
  0.00000000E+00  0.00000000E+00  0.00000000E+00
  0.00000000E+00  0.00000000E+00  0.00000000E+00
  0.00000000E+00  0.00000000E+00  0.00000000E+00
  0.00000000E+00  0.00000000E+00  0.00000000E+00
  0.00000000E+00  0.00000000E+00  0.00000000E+00
  0.00000000E+00  0.00000000E+00  0.00000000E+00
  0.00000000E+00  0.00000000E+00  0.00000000E+00
  0.00000000E+00  0.00000000E+00  0.00000000E+00
  0.00000000E+00  0.00000000E+00  0.00000000E+00
  0.00000000E+00  0.00000000E+00  0.00000000E+00
