Fe2CrPd_32sqshcp                        
   2.80000000000000     
    -0.9457795320478435   -1.6456887993623459   -0.0079198343634833
    -0.1865804142483403    0.0938498620716175   -3.0853091018040146
     2.7801976353061537   -1.6137949584306122    0.2131907454063327
   Fe   Cr   Pd
    16     8     8
Direct
  0.5138786649291228  0.3770637915768970  0.2993193835175718
  0.2584368015827774  0.3616747821756650  0.5657563658743734
  0.4775985534426884  0.3704670530701766  0.8092897110902458
  0.0150930744653226  0.3680483679991946  0.8110927072664512
  0.2503060598812071  0.8965733535418198  0.1451911196689375
  0.2492361540189460  0.8601300108486039  0.6602309623060357
  0.4971877736526104  0.8867651866224028  0.8990432695927683
  0.7422084557523555  0.8652012321961864  0.6605195664884869
  0.4940111008539896  0.1478158878435321  0.1097633604522457
  0.7412078043470967  0.1318339731232273  0.3512423235090892
  0.0055696164176901  0.1444589547676472  0.1083435530787070
  0.2492482070521239  0.1308710449955617  0.3535366402683519
  0.4935877975428712  0.1189547572688317  0.6110611455256506
  0.2455902558644387  0.1199058873561969  0.8568141341477291
  0.7441392904271177  0.6159240904003351  0.4365483725171921
  0.5098546426824768  0.6205278474962813  0.6775652415282513
  0.2484973234384202  0.3720401097665096  0.0459245999238426
  0.7489770021979906  0.3690803383334192  0.0587018570652732
  0.0144792984451082  0.3653094123981074  0.3161947440463173
  0.0136529812448951  0.8815903918661754  0.9012997357811598
  0.0123113297163219  0.1171400697396072  0.6089701184396658
  0.4942977920856128  0.6344903917229642  0.1838874200816611
  0.0111484821559307  0.6098486336839819  0.6859962551825165
  0.2431517112237998  0.6364279198190235  0.9244621466326668
  0.7514656317035118  0.3662947863168117  0.5619864215310562
  0.4974111432695439  0.8788367563912326  0.4067786235104837
  0.7471094201011850  0.8913815392667449  0.1427358021110281
  0.9969895195644451  0.8800366057394650  0.4075902073363824
  0.7487944239948666  0.1286104179299142  0.8566034612926553
 -0.0018520456517300  0.6205096517863526  0.1797675369481775
  0.2516628054023674  0.6112672949044131  0.4373535987882124
  0.7347489281948731  0.6209194590526964  0.9264296144967995
 
  0.00000000E+00  0.00000000E+00  0.00000000E+00
  0.00000000E+00  0.00000000E+00  0.00000000E+00
  0.00000000E+00  0.00000000E+00  0.00000000E+00
  0.00000000E+00  0.00000000E+00  0.00000000E+00
  0.00000000E+00  0.00000000E+00  0.00000000E+00
  0.00000000E+00  0.00000000E+00  0.00000000E+00
  0.00000000E+00  0.00000000E+00  0.00000000E+00
  0.00000000E+00  0.00000000E+00  0.00000000E+00
  0.00000000E+00  0.00000000E+00  0.00000000E+00
  0.00000000E+00  0.00000000E+00  0.00000000E+00
  0.00000000E+00  0.00000000E+00  0.00000000E+00
  0.00000000E+00  0.00000000E+00  0.00000000E+00
  0.00000000E+00  0.00000000E+00  0.00000000E+00
  0.00000000E+00  0.00000000E+00  0.00000000E+00
  0.00000000E+00  0.00000000E+00  0.00000000E+00
  0.00000000E+00  0.00000000E+00  0.00000000E+00
  0.00000000E+00  0.00000000E+00  0.00000000E+00
  0.00000000E+00  0.00000000E+00  0.00000000E+00
  0.00000000E+00  0.00000000E+00  0.00000000E+00
  0.00000000E+00  0.00000000E+00  0.00000000E+00
  0.00000000E+00  0.00000000E+00  0.00000000E+00
  0.00000000E+00  0.00000000E+00  0.00000000E+00
  0.00000000E+00  0.00000000E+00  0.00000000E+00
  0.00000000E+00  0.00000000E+00  0.00000000E+00
  0.00000000E+00  0.00000000E+00  0.00000000E+00
  0.00000000E+00  0.00000000E+00  0.00000000E+00
  0.00000000E+00  0.00000000E+00  0.00000000E+00
  0.00000000E+00  0.00000000E+00  0.00000000E+00
  0.00000000E+00  0.00000000E+00  0.00000000E+00
  0.00000000E+00  0.00000000E+00  0.00000000E+00
  0.00000000E+00  0.00000000E+00  0.00000000E+00
  0.00000000E+00  0.00000000E+00  0.00000000E+00
