Fe2NiCo_SQShcp                          
   1.00000000000000     
    -2.5111198376804658   -4.3025515551585212   -0.0005794781760042
     0.0240752090005791   -0.0149307237554385   -8.2217137843288430
     7.5411969312171108   -4.3068629854374549   -0.0298858487288372
   Fe   Ni   Co
    16     8     8
Direct
  0.4953413172035773  0.3730936363385222  0.3349999772806487
  0.2496197233984986  0.3707489525702980  0.5817230969920804
  0.4954845855251425  0.3723859307314533  0.8365490508500797
  0.9917775445744457  0.3775700089795209  0.8333847544801448
  0.2430566304034977  0.8676484800859013  0.0865422258887543
  0.2502994892087290  0.8796956416850994  0.5799240301450703
  0.5030084310214946  0.8734872707280020  0.8350221756495426
  0.7448033566168988  0.8806684612503755  0.5814006368912945
  0.5003513476858482  0.1252233348411625  0.1664945889908156
  0.7425353035301637  0.1260466392819923  0.4208181504955379
 -0.0007222502853220  0.1304618143660437  0.1705451752246223
  0.2545679432780972  0.1221492658396629  0.4205791478047528
  0.5029134370694720  0.1277762180624419  0.6560715924174677
  0.2531486797439458  0.1231934611577809  0.9135024925637742
  0.7591699487105131  0.6267404959780533  0.4155434675228507
  0.5084984102595839  0.6204969389645481  0.6679920403746784
  0.2459707320184259  0.3781937209935630  0.0845167337176220
  0.7466173351345305  0.3770173759912254  0.0839243631401232
  0.9974109083492698  0.3733559972593404  0.3337139055161777
  0.0014377059089515  0.8729005859256690  0.8315650164543005
 -0.0008216807447642  0.1248694842366781  0.6682355070606929
  0.5015299668444133  0.6245955000683385  0.1652832277059086
  0.0053769775058973  0.6254266856498584  0.6688056820963199
  0.2499391481582856  0.6253291570224737  0.9169207242561562
  0.7466885079211562  0.3711913683669476  0.5810348027826049
  0.5002349065715535  0.8747334825092519  0.3319367453590105
  0.7455170917252467  0.8721141076127388  0.0842178629587901
 -0.0019672349935693  0.8796966730368132  0.3320359116779221
  0.7536108065510452  0.1222969207918845  0.9155337440846666
 -0.0003401410482145  0.6225976301996810  0.1684413888030380
  0.2598052776996231  0.6284903392414085  0.4168158998685723
  0.7551357944535627  0.6298044202332713  0.9159258809459807
 
  0.00000000E+00  0.00000000E+00  0.00000000E+00
  0.00000000E+00  0.00000000E+00  0.00000000E+00
  0.00000000E+00  0.00000000E+00  0.00000000E+00
  0.00000000E+00  0.00000000E+00  0.00000000E+00
  0.00000000E+00  0.00000000E+00  0.00000000E+00
  0.00000000E+00  0.00000000E+00  0.00000000E+00
  0.00000000E+00  0.00000000E+00  0.00000000E+00
  0.00000000E+00  0.00000000E+00  0.00000000E+00
  0.00000000E+00  0.00000000E+00  0.00000000E+00
  0.00000000E+00  0.00000000E+00  0.00000000E+00
  0.00000000E+00  0.00000000E+00  0.00000000E+00
  0.00000000E+00  0.00000000E+00  0.00000000E+00
  0.00000000E+00  0.00000000E+00  0.00000000E+00
  0.00000000E+00  0.00000000E+00  0.00000000E+00
  0.00000000E+00  0.00000000E+00  0.00000000E+00
  0.00000000E+00  0.00000000E+00  0.00000000E+00
  0.00000000E+00  0.00000000E+00  0.00000000E+00
  0.00000000E+00  0.00000000E+00  0.00000000E+00
  0.00000000E+00  0.00000000E+00  0.00000000E+00
  0.00000000E+00  0.00000000E+00  0.00000000E+00
  0.00000000E+00  0.00000000E+00  0.00000000E+00
  0.00000000E+00  0.00000000E+00  0.00000000E+00
  0.00000000E+00  0.00000000E+00  0.00000000E+00
  0.00000000E+00  0.00000000E+00  0.00000000E+00
  0.00000000E+00  0.00000000E+00  0.00000000E+00
  0.00000000E+00  0.00000000E+00  0.00000000E+00
  0.00000000E+00  0.00000000E+00  0.00000000E+00
  0.00000000E+00  0.00000000E+00  0.00000000E+00
  0.00000000E+00  0.00000000E+00  0.00000000E+00
  0.00000000E+00  0.00000000E+00  0.00000000E+00
  0.00000000E+00  0.00000000E+00  0.00000000E+00
  0.00000000E+00  0.00000000E+00  0.00000000E+00
