Cr2CoMn_32sqshcp                        
   2.80000000000000     
    -0.7347835115688387   -1.6021597826229879   -0.0012646531795021
    -0.0062646752898134   -0.0028693388159311   -2.8678475642424743
     2.7613599274971441   -1.9289367764746566    0.0058183410656686
   Cr   Co   Mn
    16     8     8
Direct
  0.5560421702659032  0.3728975875154208  0.3119141446234235
  0.2970175279049122  0.3734382046831343  0.5637426830549694
  0.5650734680627129  0.3774937482280211  0.8120720498338503
  0.0721042740952494  0.3760207798812137  0.8160201775981361
  0.3152179003045459  0.8812264634498291  0.0589831450304893
  0.3061712538473091  0.8767132189025605  0.5623212077858724
  0.5750744782528310  0.8731551084173443  0.8097886044825979
  0.8099937810630800  0.8738806608057930  0.5606831736870306
  0.4370222179111482  0.1256326736494690  0.1878339692018047
  0.6948955627249558  0.1265297530032420  0.4387392991247430
  0.9368707408803845  0.1244935615680788  0.1848536795115140
  0.1928605019716714  0.1197215711072820  0.4358260293780173
  0.4335060028991495  0.1226057814336790  0.6895746967362082
  0.1761969564022311  0.1276440579752663  0.9360735217207672
  0.6917556021884934  0.6231591275213582  0.4370692515561918
  0.4277547542500598  0.6295952126116795  0.6865799187631318
  0.3073990182911668  0.3741773574723481  0.0657634343406924
  0.8073429440422901  0.3743797969851588  0.0624365976800519
  0.0582540929993103  0.3730155246197071  0.3155508546613527
  0.0715561529772602  0.8754784690528647  0.8148341734875529
  0.9340145993956704  0.1283164712622212  0.6872684505606598
  0.4436600580204436  0.6295640828638257  0.1876224152769151
 -0.0678615615668808  0.6218300727548000  0.6845394153157247
  0.1957659958682345  0.6242418678333086  0.9392006109611016
  0.7973578173103079  0.3743953842926184  0.5642990424218690
  0.5659236864577329  0.8796407240688822  0.3152863001317167
  0.8148332498684484  0.8701809813920200  0.0678183827602661
  0.0695265711752507  0.8744566598250245  0.3073688752435850
  0.6793044192776486  0.1234314150386259  0.9363524531376742
  0.9447941850538152  0.6192874319128426  0.1871669517102737
  0.1933483941818507  0.6264103940803737  0.4372927685842078
  0.6972231836227913  0.6269858557920003  0.9351237216376288
 
  0.00000000E+00  0.00000000E+00  0.00000000E+00
  0.00000000E+00  0.00000000E+00  0.00000000E+00
  0.00000000E+00  0.00000000E+00  0.00000000E+00
  0.00000000E+00  0.00000000E+00  0.00000000E+00
  0.00000000E+00  0.00000000E+00  0.00000000E+00
  0.00000000E+00  0.00000000E+00  0.00000000E+00
  0.00000000E+00  0.00000000E+00  0.00000000E+00
  0.00000000E+00  0.00000000E+00  0.00000000E+00
  0.00000000E+00  0.00000000E+00  0.00000000E+00
  0.00000000E+00  0.00000000E+00  0.00000000E+00
  0.00000000E+00  0.00000000E+00  0.00000000E+00
  0.00000000E+00  0.00000000E+00  0.00000000E+00
  0.00000000E+00  0.00000000E+00  0.00000000E+00
  0.00000000E+00  0.00000000E+00  0.00000000E+00
  0.00000000E+00  0.00000000E+00  0.00000000E+00
  0.00000000E+00  0.00000000E+00  0.00000000E+00
  0.00000000E+00  0.00000000E+00  0.00000000E+00
  0.00000000E+00  0.00000000E+00  0.00000000E+00
  0.00000000E+00  0.00000000E+00  0.00000000E+00
  0.00000000E+00  0.00000000E+00  0.00000000E+00
  0.00000000E+00  0.00000000E+00  0.00000000E+00
  0.00000000E+00  0.00000000E+00  0.00000000E+00
  0.00000000E+00  0.00000000E+00  0.00000000E+00
  0.00000000E+00  0.00000000E+00  0.00000000E+00
  0.00000000E+00  0.00000000E+00  0.00000000E+00
  0.00000000E+00  0.00000000E+00  0.00000000E+00
  0.00000000E+00  0.00000000E+00  0.00000000E+00
  0.00000000E+00  0.00000000E+00  0.00000000E+00
  0.00000000E+00  0.00000000E+00  0.00000000E+00
  0.00000000E+00  0.00000000E+00  0.00000000E+00
  0.00000000E+00  0.00000000E+00  0.00000000E+00
  0.00000000E+00  0.00000000E+00  0.00000000E+00
