FeCr2Mn_32sqshcp                        
   2.80000000000000     
    -1.0088879740900134   -1.4276243388452134   -0.0002315576262861
    -0.0023503560931377    0.0013033852692101   -2.8511660878759457
     3.0204142592122851   -1.4236048228229345    0.0021331239445717
   Fe   Cr   Mn
     8    16     8
Direct
  0.1875883928992742  0.3723014325232140  0.0635354764487281
  0.6888129384849575  0.3759347226412968  0.0650104446663433
  0.9364406097222923  0.3722908552826214  0.3177128921085978
  0.9339027422413408  0.8757991291471696  0.8150567129251785
  0.0616004440838938  0.1287411135062113  0.6833157695517725
  0.5609469165978505  0.6236124113295002  0.1853388119452567
  0.0621550348580467  0.6198613767402891  0.6773284446692758
  0.3128102792412963  0.6250493280581004  0.9372418466480785
  0.4333243722588145  0.3764356479878708  0.3121194768639466
  0.1927666597102093  0.3768103927205890  0.5633668914413584
  0.4347739756030055  0.3715526149275308  0.8102965823295927
  0.9356383689548488  0.3781852328925679  0.8180051691210291
  0.1833671776236962  0.8727819814059176  0.0645653200005585
  0.1936093040554996  0.8760479095356837  0.5623227840182912
  0.4291510883561581  0.8758836382685098  0.8109328314827882
  0.6914851675706155  0.8718734918807896  0.5635404471397459
  0.5665097193852421  0.1249906025693515  0.1870641641083143
  0.8027243556894914  0.1219261727720729  0.4347517427187856
  0.0625365876157368  0.1215581232097497  0.1854271509841854
  0.3121059604434365  0.1276599645224126  0.4391006474645792
  0.5680855497352328  0.1236921014315359  0.6889190636394519
  0.3172503442614663  0.1220111296863183  0.9371863098209717
  0.8012999162972912  0.6318534932106611  0.4333625185079855
  0.5669390346296651  0.6298541485343543  0.6930627813487255
  0.6983315893046892  0.3768111925826599  0.5639312781409829
  0.4361084807100866  0.8782253943796682  0.3091713670759341
  0.6811892018669611  0.8774184004030258  0.0638823175261410
  0.9437519020606524  0.8737291680078214  0.3185147352565647
  0.8189718602608497  0.1254450623465113  0.9325936361757801
  0.0606091262109625  0.6272388374073956  0.1895885814585612
  0.3131221001817369  0.6209037837169233  0.4410817869382739
  0.8120907990846997  0.6235211463716699  0.9326720174742347
 
  0.00000000E+00  0.00000000E+00  0.00000000E+00
  0.00000000E+00  0.00000000E+00  0.00000000E+00
  0.00000000E+00  0.00000000E+00  0.00000000E+00
  0.00000000E+00  0.00000000E+00  0.00000000E+00
  0.00000000E+00  0.00000000E+00  0.00000000E+00
  0.00000000E+00  0.00000000E+00  0.00000000E+00
  0.00000000E+00  0.00000000E+00  0.00000000E+00
  0.00000000E+00  0.00000000E+00  0.00000000E+00
  0.00000000E+00  0.00000000E+00  0.00000000E+00
  0.00000000E+00  0.00000000E+00  0.00000000E+00
  0.00000000E+00  0.00000000E+00  0.00000000E+00
  0.00000000E+00  0.00000000E+00  0.00000000E+00
  0.00000000E+00  0.00000000E+00  0.00000000E+00
  0.00000000E+00  0.00000000E+00  0.00000000E+00
  0.00000000E+00  0.00000000E+00  0.00000000E+00
  0.00000000E+00  0.00000000E+00  0.00000000E+00
  0.00000000E+00  0.00000000E+00  0.00000000E+00
  0.00000000E+00  0.00000000E+00  0.00000000E+00
  0.00000000E+00  0.00000000E+00  0.00000000E+00
  0.00000000E+00  0.00000000E+00  0.00000000E+00
  0.00000000E+00  0.00000000E+00  0.00000000E+00
  0.00000000E+00  0.00000000E+00  0.00000000E+00
  0.00000000E+00  0.00000000E+00  0.00000000E+00
  0.00000000E+00  0.00000000E+00  0.00000000E+00
  0.00000000E+00  0.00000000E+00  0.00000000E+00
  0.00000000E+00  0.00000000E+00  0.00000000E+00
  0.00000000E+00  0.00000000E+00  0.00000000E+00
  0.00000000E+00  0.00000000E+00  0.00000000E+00
  0.00000000E+00  0.00000000E+00  0.00000000E+00
  0.00000000E+00  0.00000000E+00  0.00000000E+00
  0.00000000E+00  0.00000000E+00  0.00000000E+00
  0.00000000E+00  0.00000000E+00  0.00000000E+00
