FeNiCoCrPd_SQS160_fcc31_Cr36            
   3.50000000000000     
    -1.5668791250027212    0.5223398075333436   -2.0867494912333897
     2.0862350654523301   -2.0945749735594332   -2.0858332745653070
    -3.1280382121748573   -3.1365328895554421    2.0818099416894231
   Fe   Ni   Co   Cr   Pd
    31    31    31    36    31
Direct
  0.9731997657420475  0.3657956311224784  0.0838977709744532
  0.8540567265772254  0.1790042728825771  0.0230909031823164
  0.8321122384068528  0.0433821369205531  0.1084366899560106
  0.8788416363767764  0.3154302639593560  0.4354834542599416
  0.8422397927107055  0.1866594115935213  0.5205623104237216
  0.8991711855744533  0.9531868829633918  0.3476812877565093
  0.7732222503832534  0.7545124030207055  0.2831044505296155
  0.9168803678921009  0.5882249498767783  0.7625637740790605
  0.8264761028874619  0.5356835634163841  0.6153071875046793
  0.4271669833136152  0.3519257066952796  0.0145632861371588
  0.6928019139622935  0.3497394829275540  0.5507968066879515
  0.4698597953199782  0.1123137425149255  0.3440684577600382
  0.7881499009274059  0.8984841127815008  0.7014571733035417
  0.4003697382090480  0.6961118506937989  0.1011693358091947
  0.7702874902051574  0.7610353397571891  0.7882962309254768
  0.6471991348062157  0.5751812447827841  0.7280866368394263
  0.5246263900076283  0.3913613016466156  0.6635263075471332
  0.6007975603817554  0.3017378430987799  0.9035307161058219
  0.2746719227744833  0.0097286823867423  0.5363897951207293
  0.4155163512759751  0.8366254185772202  0.5145485889815946
  0.2843110313476275  0.6475411710642727  0.4504397158620962
  0.5690836517458597  0.6613907979769267  0.9866876951494662
  0.0686184229445651  0.4119294638485364  0.2390829971663284
  0.4443703045829686  0.4764770543952596  0.9238584338814181
  0.3511144821047961  0.4288248163989621  0.7734051423154371
  0.2210559742121017  0.2434324629257504  0.7199420205275284
  0.1232220595135450  0.1993339946275507  0.5623420971655941
  0.1957414822842028  0.9624282537350983  0.3890940910839178
  0.2301977166068638  0.7407055336229951  0.7110936399338680
  0.1084020050010442  0.5476945883167778  0.6451179064462309
  0.0765208995506269  0.4128802758919066  0.7332409451167411
  0.9476708250986265  0.2298844498591812  0.1735879977546186
  0.9489323843829599  0.7176389839522342  0.1727385693152645
  0.7027063683831839  0.3558425758467329  0.0530545654148626
  0.7025739714273470  0.8430529738580267  0.0463518436006111
  0.8749935692116392  0.8123227289516584  0.4335276403368022
  0.6750937520570048  0.7084914157182207  0.1316449465759181
  0.5275117269915924  0.3872498100552911  0.1626536805659426
  0.8749213770175454  0.3138646237449775  0.9422313080848682
  0.6740306286549338  0.2160772933235134  0.6361274593772882
  0.7496082197039989  0.1206572149824095  0.8767433434843545
  0.5167978077909203  0.8786949387176338  0.1602290590328044
  0.4212681106061691  0.8296189979076702  0.0160287093970132
  0.8936958795631087  0.9446447698790257  0.8510389255128207
  0.8771038737778164  0.8131477034198057  0.9388742804123161
  0.6728844910254845  0.7121177101855903  0.6428245090755380
  0.2146807030979197  0.2360215578535881  0.2110885760730272
  0.4744800173623331  0.1108260921680363  0.8367323318010284
  0.3485776079811576  0.9180052550800138  0.2748734542031203
  0.7330311155927209  0.9872757903390862  0.9612653875086239
  0.5214009781340312  0.8810889811161128  0.6642705504540402
  0.2263281556254688  0.7310002275280508  0.2085852713232635
  0.3931390494236684  0.6975197754108440  0.6015893672455258
  0.1674562381885902  0.4642529208563346  0.3856191645530865
  0.1486191836051274  0.3321116596421124  0.4772433020232050
  0.3257302356768013  0.2908686262155666  0.8672862314814663
  0.2108819512423939  0.1014165644987790  0.8005551640442009
  0.1191666931573511  0.0545421823554535  0.6531042855029675
  0.3527899921298966  0.9197319515765157  0.7726149647789632
  0.1566456437668901  0.8243485487399398  0.4750766050015854
  0.0268596000561054  0.6345023707908188  0.4108377454210341
  0.1493481756712141  0.3276193220011232  0.9732160900958102
  0.9251525940615674  0.0973973506192941  0.2567197624652818
  0.9287718331036484  0.5814864379944951  0.2598418978929111
  0.9755804166584603  0.3684096525971689  0.5838113438892805
  0.7843536079812398  0.2694930662496119  0.2856574649411476
  0.6846725395406507  0.2186880679791253  0.1409746311943580
  0.7615945385600033  0.6228711999523853  0.3694444251253384
  0.6299439362942877  0.4318733877301185  0.3077563907961361
  0.6057301209690188  0.2952413165856237  0.3964683943575910
  0.5723661387766962  0.1703565782507457  0.4855241859214763
  0.6503866856159034  0.0682981965745319  0.7303056833312465
  0.6998509004326351  0.8493503205982571  0.5563565915342817
  0.4904289250948041  0.7473329983196401  0.2442428926937957
  0.2708730924931603  0.5165182730474998  0.0370367672042095
  0.3513086081999428  0.4246329018537526  0.2718708918295446
  0.4291037453197933  0.3420846051668283  0.5174820284724824
  0.1081907792917339  0.1863316767118667  0.0628879517187621
  0.9920721625450856 -0.0001181676672857  0.9979046621413011
  0.2520511739286996  0.8631721766097202  0.1222147760929803
  0.6264479136840952  0.9385855345858362  0.8086425348735031
  0.1273871154404962  0.6835746000387818  0.0641028669153857
  0.1948993536539773  0.5914655336371999  0.2961544889548754
  0.0961677623609032  0.5537344817166981  0.1493429316932950
  0.0095085270065994  0.4994835248592115  0.0040349097041146
  0.4799190648518319  0.6071744641864262  0.8373326691418872
  0.3781453235684602  0.5601119367098256  0.6854421130465105
  0.2480338521663352  0.3789442724489200  0.6239548971291510
  0.0432497342446449  0.2773752394261770  0.3203460495290892
  0.2557306882695818  0.8768776637538175  0.6244881812009850
  0.0100523615541836  0.5012867744298717  0.5012289812121479
  0.1836615788201859  0.4570062993969701  0.8901537748366887
  0.0627740502230252  0.2758034722686849  0.8297070459205107
  0.9791424032814732  0.8508576963360994  0.0803374962723049
  0.8529673823407982  0.6706019378050658  0.0279989288873278
  0.8411504125138195  0.5361190830658593  0.1164022455687223
  0.9049115271403142  0.4532145661231540  0.3485949109057626
  0.7962290589531485  0.3970613298923518  0.1955490709571641
  0.7434510721565523  0.1329071804731052  0.3709049401113963
  0.6540659276322515  0.0877836897621880  0.2295125442554170
  0.8220342002408469  0.0417728315006596  0.6138381695918576
  0.5532067669701324  0.5253718758850149  0.0654409196733125
  0.7994478310192933  0.4034727398958229  0.6951207767809411
  0.5108807313257958  0.2463225130626499  0.2530316778794390
  0.3632426593025004  0.0553831367641902  0.1921428101357403
  0.4704926236842273  0.6105557056025090  0.3333590094460772
  0.3657455296785984  0.5643911943311734  0.1921018304876937
  0.7503024093121730  0.6305217217769409  0.8738352320180801
  0.5580859645983095  0.5253390456364871  0.5844208024916179
  0.7374234203167745  0.4950689745338104  0.9689600815733721
  0.6141591508744452  0.4398502464553548  0.8189952793036150
  0.3010197699955682  0.1550155312862582  0.4555023081466902
  0.2078680468573597  0.0978174551602161  0.2941527362206202
  0.0859813306542936  0.0496515086192424  0.1429176839730999
  0.3763187348644679  0.0522362592167876  0.6915047182118523
  0.4468313612570330  0.9734503104576760  0.4253817296690000
  0.3244824257143761  0.7702427750416804  0.3574764696933300
  0.4936227880229251  0.7440969884039504  0.7481214334065114
  0.2721985174311676  0.5064633036927343  0.5394232894889796
  0.2850680984927083  0.1557787697806227  0.9470345925211293
  0.3130788811530036  0.7852439332870383  0.8723304250574729
  0.1320066340799507  0.6889946142861831  0.5620956475601014
  0.3051429227167439  0.6449159741199826  0.9544465197491347
  0.0329435885900376  0.1380418828950100  0.9159730206792110
  0.1623304580860822  0.9587037139438659  0.8790817468258649
  0.0925273165074441  0.9142984694152962  0.7399920012893313
  0.1472790402169167  0.8262970537320464  0.9825790952415054
  0.0413201823848703  0.7751905843150181  0.8294595184828935
  0.0299244792005204  0.6425414292573429  0.9189169673475632
  0.9511949415330530  0.2273044429607408  0.6716726867086901
  0.5581756577446141  0.0184090091886251  0.0794222015510121
  0.9333480497131456  0.0806973750797038  0.7640504407952624
  0.7999508726031408  0.9001645286964300  0.1930025900315968
  0.9798096197426326  0.8693293770592121  0.5907316718734053
  0.9526838193282225  0.7249022630976740  0.6800175206329591
  0.8538737839493959  0.6759024700047590  0.5225656517988182
  0.6486344120959266  0.5725783684543483  0.2202003096601673
  0.7284370113435771  0.4825210223186550  0.4603886146630776
  0.9075491172620779  0.4536204934431789  0.8517706746257184
  0.3998191686674600  0.2028298865484174  0.1043017684139125
  0.7750642321416943  0.2616933533756676  0.7915755460978365
  0.2646918136834081  0.0111054269378158  0.0370531004729668
  0.5487330215279842  0.0225309533864213  0.5793321102420989
  0.7276385961762456  0.9934478625062823  0.4629561532232089
  0.6184583096429069  0.9392899201327591  0.3075525719289273
  0.5989051932520930  0.7967467075637017  0.3980494937561445
  0.5664258239278837  0.6653265698036380  0.4922718991769475
  0.4433350022488996  0.4752729878891483  0.4241388543784670
  0.2432571165257671  0.3786620160792498  0.1251233967116271
  0.3192701370222720  0.2847808815505207  0.3610285871490832
  0.4954439012394770  0.2493488246526277  0.7538518591302260
  0.3938350828677284  0.2025953873163240  0.6011688060284130
  0.5794611280954184  0.1686133471097596  0.9889566571771411
  0.5968934118317635  0.7986830571893980  0.8993506165392497
  0.0290923518282315  0.1413285509340008  0.4073321565170056
  0.0091379309134278  0.0062326075882585  0.5005110152734280
  0.0810110378547311  0.9156809096474501  0.2355564932115185
  0.4421983329208725  0.9757301987229501  0.9208287084610742
  0.0507641274733915  0.7718412739524928  0.3249846537306900
  0.1984006185313569  0.5992093933680741  0.7994031963899432
 
  0.00000000E+00  0.00000000E+00  0.00000000E+00
  0.00000000E+00  0.00000000E+00  0.00000000E+00
  0.00000000E+00  0.00000000E+00  0.00000000E+00
  0.00000000E+00  0.00000000E+00  0.00000000E+00
  0.00000000E+00  0.00000000E+00  0.00000000E+00
  0.00000000E+00  0.00000000E+00  0.00000000E+00
  0.00000000E+00  0.00000000E+00  0.00000000E+00
  0.00000000E+00  0.00000000E+00  0.00000000E+00
  0.00000000E+00  0.00000000E+00  0.00000000E+00
  0.00000000E+00  0.00000000E+00  0.00000000E+00
  0.00000000E+00  0.00000000E+00  0.00000000E+00
  0.00000000E+00  0.00000000E+00  0.00000000E+00
  0.00000000E+00  0.00000000E+00  0.00000000E+00
  0.00000000E+00  0.00000000E+00  0.00000000E+00
  0.00000000E+00  0.00000000E+00  0.00000000E+00
  0.00000000E+00  0.00000000E+00  0.00000000E+00
  0.00000000E+00  0.00000000E+00  0.00000000E+00
  0.00000000E+00  0.00000000E+00  0.00000000E+00
  0.00000000E+00  0.00000000E+00  0.00000000E+00
  0.00000000E+00  0.00000000E+00  0.00000000E+00
  0.00000000E+00  0.00000000E+00  0.00000000E+00
  0.00000000E+00  0.00000000E+00  0.00000000E+00
  0.00000000E+00  0.00000000E+00  0.00000000E+00
  0.00000000E+00  0.00000000E+00  0.00000000E+00
  0.00000000E+00  0.00000000E+00  0.00000000E+00
  0.00000000E+00  0.00000000E+00  0.00000000E+00
  0.00000000E+00  0.00000000E+00  0.00000000E+00
  0.00000000E+00  0.00000000E+00  0.00000000E+00
  0.00000000E+00  0.00000000E+00  0.00000000E+00
  0.00000000E+00  0.00000000E+00  0.00000000E+00
  0.00000000E+00  0.00000000E+00  0.00000000E+00
  0.00000000E+00  0.00000000E+00  0.00000000E+00
  0.00000000E+00  0.00000000E+00  0.00000000E+00
  0.00000000E+00  0.00000000E+00  0.00000000E+00
  0.00000000E+00  0.00000000E+00  0.00000000E+00
  0.00000000E+00  0.00000000E+00  0.00000000E+00
  0.00000000E+00  0.00000000E+00  0.00000000E+00
  0.00000000E+00  0.00000000E+00  0.00000000E+00
  0.00000000E+00  0.00000000E+00  0.00000000E+00
  0.00000000E+00  0.00000000E+00  0.00000000E+00
  0.00000000E+00  0.00000000E+00  0.00000000E+00
  0.00000000E+00  0.00000000E+00  0.00000000E+00
  0.00000000E+00  0.00000000E+00  0.00000000E+00
  0.00000000E+00  0.00000000E+00  0.00000000E+00
  0.00000000E+00  0.00000000E+00  0.00000000E+00
  0.00000000E+00  0.00000000E+00  0.00000000E+00
  0.00000000E+00  0.00000000E+00  0.00000000E+00
  0.00000000E+00  0.00000000E+00  0.00000000E+00
  0.00000000E+00  0.00000000E+00  0.00000000E+00
  0.00000000E+00  0.00000000E+00  0.00000000E+00
  0.00000000E+00  0.00000000E+00  0.00000000E+00
  0.00000000E+00  0.00000000E+00  0.00000000E+00
  0.00000000E+00  0.00000000E+00  0.00000000E+00
  0.00000000E+00  0.00000000E+00  0.00000000E+00
  0.00000000E+00  0.00000000E+00  0.00000000E+00
  0.00000000E+00  0.00000000E+00  0.00000000E+00
  0.00000000E+00  0.00000000E+00  0.00000000E+00
  0.00000000E+00  0.00000000E+00  0.00000000E+00
  0.00000000E+00  0.00000000E+00  0.00000000E+00
  0.00000000E+00  0.00000000E+00  0.00000000E+00
  0.00000000E+00  0.00000000E+00  0.00000000E+00
  0.00000000E+00  0.00000000E+00  0.00000000E+00
  0.00000000E+00  0.00000000E+00  0.00000000E+00
  0.00000000E+00  0.00000000E+00  0.00000000E+00
  0.00000000E+00  0.00000000E+00  0.00000000E+00
  0.00000000E+00  0.00000000E+00  0.00000000E+00
  0.00000000E+00  0.00000000E+00  0.00000000E+00
  0.00000000E+00  0.00000000E+00  0.00000000E+00
  0.00000000E+00  0.00000000E+00  0.00000000E+00
  0.00000000E+00  0.00000000E+00  0.00000000E+00
  0.00000000E+00  0.00000000E+00  0.00000000E+00
  0.00000000E+00  0.00000000E+00  0.00000000E+00
  0.00000000E+00  0.00000000E+00  0.00000000E+00
  0.00000000E+00  0.00000000E+00  0.00000000E+00
  0.00000000E+00  0.00000000E+00  0.00000000E+00
  0.00000000E+00  0.00000000E+00  0.00000000E+00
  0.00000000E+00  0.00000000E+00  0.00000000E+00
  0.00000000E+00  0.00000000E+00  0.00000000E+00
  0.00000000E+00  0.00000000E+00  0.00000000E+00
  0.00000000E+00  0.00000000E+00  0.00000000E+00
  0.00000000E+00  0.00000000E+00  0.00000000E+00
  0.00000000E+00  0.00000000E+00  0.00000000E+00
  0.00000000E+00  0.00000000E+00  0.00000000E+00
  0.00000000E+00  0.00000000E+00  0.00000000E+00
  0.00000000E+00  0.00000000E+00  0.00000000E+00
  0.00000000E+00  0.00000000E+00  0.00000000E+00
  0.00000000E+00  0.00000000E+00  0.00000000E+00
  0.00000000E+00  0.00000000E+00  0.00000000E+00
  0.00000000E+00  0.00000000E+00  0.00000000E+00
  0.00000000E+00  0.00000000E+00  0.00000000E+00
  0.00000000E+00  0.00000000E+00  0.00000000E+00
  0.00000000E+00  0.00000000E+00  0.00000000E+00
  0.00000000E+00  0.00000000E+00  0.00000000E+00
  0.00000000E+00  0.00000000E+00  0.00000000E+00
  0.00000000E+00  0.00000000E+00  0.00000000E+00
  0.00000000E+00  0.00000000E+00  0.00000000E+00
  0.00000000E+00  0.00000000E+00  0.00000000E+00
  0.00000000E+00  0.00000000E+00  0.00000000E+00
  0.00000000E+00  0.00000000E+00  0.00000000E+00
  0.00000000E+00  0.00000000E+00  0.00000000E+00
  0.00000000E+00  0.00000000E+00  0.00000000E+00
  0.00000000E+00  0.00000000E+00  0.00000000E+00
  0.00000000E+00  0.00000000E+00  0.00000000E+00
  0.00000000E+00  0.00000000E+00  0.00000000E+00
  0.00000000E+00  0.00000000E+00  0.00000000E+00
  0.00000000E+00  0.00000000E+00  0.00000000E+00
  0.00000000E+00  0.00000000E+00  0.00000000E+00
  0.00000000E+00  0.00000000E+00  0.00000000E+00
  0.00000000E+00  0.00000000E+00  0.00000000E+00
  0.00000000E+00  0.00000000E+00  0.00000000E+00
  0.00000000E+00  0.00000000E+00  0.00000000E+00
  0.00000000E+00  0.00000000E+00  0.00000000E+00
  0.00000000E+00  0.00000000E+00  0.00000000E+00
  0.00000000E+00  0.00000000E+00  0.00000000E+00
  0.00000000E+00  0.00000000E+00  0.00000000E+00
  0.00000000E+00  0.00000000E+00  0.00000000E+00
  0.00000000E+00  0.00000000E+00  0.00000000E+00
  0.00000000E+00  0.00000000E+00  0.00000000E+00
  0.00000000E+00  0.00000000E+00  0.00000000E+00
  0.00000000E+00  0.00000000E+00  0.00000000E+00
  0.00000000E+00  0.00000000E+00  0.00000000E+00
  0.00000000E+00  0.00000000E+00  0.00000000E+00
  0.00000000E+00  0.00000000E+00  0.00000000E+00
  0.00000000E+00  0.00000000E+00  0.00000000E+00
  0.00000000E+00  0.00000000E+00  0.00000000E+00
  0.00000000E+00  0.00000000E+00  0.00000000E+00
  0.00000000E+00  0.00000000E+00  0.00000000E+00
  0.00000000E+00  0.00000000E+00  0.00000000E+00
  0.00000000E+00  0.00000000E+00  0.00000000E+00
  0.00000000E+00  0.00000000E+00  0.00000000E+00
  0.00000000E+00  0.00000000E+00  0.00000000E+00
  0.00000000E+00  0.00000000E+00  0.00000000E+00
  0.00000000E+00  0.00000000E+00  0.00000000E+00
  0.00000000E+00  0.00000000E+00  0.00000000E+00
  0.00000000E+00  0.00000000E+00  0.00000000E+00
  0.00000000E+00  0.00000000E+00  0.00000000E+00
  0.00000000E+00  0.00000000E+00  0.00000000E+00
  0.00000000E+00  0.00000000E+00  0.00000000E+00
  0.00000000E+00  0.00000000E+00  0.00000000E+00
  0.00000000E+00  0.00000000E+00  0.00000000E+00
  0.00000000E+00  0.00000000E+00  0.00000000E+00
  0.00000000E+00  0.00000000E+00  0.00000000E+00
  0.00000000E+00  0.00000000E+00  0.00000000E+00
  0.00000000E+00  0.00000000E+00  0.00000000E+00
  0.00000000E+00  0.00000000E+00  0.00000000E+00
  0.00000000E+00  0.00000000E+00  0.00000000E+00
  0.00000000E+00  0.00000000E+00  0.00000000E+00
  0.00000000E+00  0.00000000E+00  0.00000000E+00
  0.00000000E+00  0.00000000E+00  0.00000000E+00
  0.00000000E+00  0.00000000E+00  0.00000000E+00
  0.00000000E+00  0.00000000E+00  0.00000000E+00
  0.00000000E+00  0.00000000E+00  0.00000000E+00
  0.00000000E+00  0.00000000E+00  0.00000000E+00
  0.00000000E+00  0.00000000E+00  0.00000000E+00
  0.00000000E+00  0.00000000E+00  0.00000000E+00
  0.00000000E+00  0.00000000E+00  0.00000000E+00
  0.00000000E+00  0.00000000E+00  0.00000000E+00
  0.00000000E+00  0.00000000E+00  0.00000000E+00
  0.00000000E+00  0.00000000E+00  0.00000000E+00
  0.00000000E+00  0.00000000E+00  0.00000000E+00
