FeNiCoCrMn_SQSfcc160_34_29              
   3.50000000000000     
     1.5149902915729239    1.0180312382732739   -2.5312211367223090
    -2.5221389125170446   -0.0004277680936452   -2.5296744567777107
    -0.5016490009913716    4.0625225126826381   -0.5080543444451279
   Fe   Ni   Co   Cr   Mn
    34    34    34    29    29
Direct
  0.8744872773113311  0.9451626182706487  0.9073515875480079
  0.6233474628673759  0.9773870539275643  0.9702885694448836
  0.8774796951237922  0.9928624091214234  0.6557875991256561
  0.5006341157075346  0.9205530618186469  0.8743134690855188
  0.7498649747403400  0.9345241718568320  0.5618382488624004
  0.7546368725720317  0.6890804925432813  0.8111823629225354
  0.8734102414559330  0.5493106016201924  0.9082068954163653
  0.8715181071773892  0.3438820928154179  0.9086026343275733
  0.8808670629780331  0.8932557291828492  0.1520967801821330
  0.6262854568518993  0.9377960707893620  0.2169557793949867
  0.8714726678556552  0.3962095763903458  0.6570246518619691
  0.0027197758828399  0.9007269953433850  0.4993364853871860
  0.1286368479612679  0.7568307230111443  0.5912470921057175
  0.3786885915823497  0.4670285096746287  0.7824221655018809
  0.7474180697615097  0.5892438062635289  0.3117733212255840
  0.3763069786617547  0.7651388588735045  0.2793281344136881
  0.1252558331891519  0.5580984574432184  0.5920217510513390
  0.8719670158268140  0.4972132819944113  0.1560900483931847
  0.8728678689217599  0.2424914506427824  0.4035307087023519
  0.5033609175728289  0.4275759937629449  0.3752494458520513
  0.6254083896109949  0.2816890561249873  0.4686276597240865
  0.7517123262964995  0.1374089576245294  0.5642562444132340
  0.2450185776584208  0.4613530121631949  0.4400955670597241
  0.3775840181771478  0.3151884950808012  0.5311093539698239
  0.4970965779682225  0.1753484603061194  0.6266480326335739
  0.1223467636143236  0.1081989331278702  0.8446679193368888
  0.4994741650270673  0.4796601507556846  0.1230249356437486
  0.6277667889217077  0.3310008241933869  0.2190319012648805
  0.8746886424710012  0.0412766491935628  0.4031041378978917
  0.2512343146264234  0.2575294905987607  0.4390187220234381
 -0.0033244963619255  0.0526069902676817  0.7513369328884056
  0.4949478473701564  0.2749000235567346  0.1277531949818937
  0.2494752398932298  0.0600642860027605  0.4362080702354391
  0.0043602856172494  0.0038189827090826 -0.0039124282625671
  0.7507861626130226  0.8868255285106903  0.8123208690193433
  0.8742679339653008  0.7466472888668246  0.9093627251050226
  0.6225898583179633  0.7808445676382154  0.9700166216802057
  0.8757276118155952  0.7923371594071928  0.6547639870307200
  0.5020597968326770  0.9724443617029511  0.6247178063033718
  0.2499205769561760  0.7651573165213523  0.9363244473693244
  0.8747468215625475  0.8408185892139750  0.4062828579722402
  0.5000430728863735  0.7740143967368454  0.6259511915964792
  0.6270426866225597  0.6308701617826225  0.7176795078398227
  0.7475455978464249  0.4895129414365335  0.8137545518756669
  0.3739530858218612  0.6676878157982349  0.7807876010656366
  0.6230389081519425  0.3832038389452724  0.9699760676734432
  0.7497999999092928  0.5363566617881828  0.5622455111917235
  0.8755415576653280  0.1455131704873859  0.9062594162676111
  0.2525519666258202  0.6124566600376332  0.6865723921535625
  0.5002120134316358  0.3256980170585836  0.8767868488740787
  0.1282527374914955  0.5051303764912903  0.8432517171383914
  0.8778719915883763  0.6938485692331511  0.1539150000554171
  0.8740398602749604  0.4431313404985059  0.4073680856294288
  0.5001456214877960  0.6275361081443408  0.3753541392119740
  0.6241146026663256  0.4827408137712958  0.4701411622178085
  0.8758205250048955  0.1928336568145266  0.6564277951317780
  0.2495838532555607  0.6630777247894223  0.4370352802359087
  0.7491571173479576  0.0877101090845172  0.8139199070909550
  0.7476301875920169  0.6385057320629633  0.0629302759535969
  0.7493790299846527  0.4394653702686740  0.0625007328324528
  0.1238917297875931  0.4049912236362520  0.3451730811305356
  0.3777438775371842  0.1158631164344685  0.5307337080287785
 -0.0004081023495778  0.6019635839173109 -0.0016779463519618
  0.2475825432708446  0.3127206609152584  0.1876280137376455
  0.0002575413023867  0.3491620852778859  0.2519465308159314
  0.3744178943013269  0.2206917326415116  0.0309586031216898
 -0.0006468733326114  0.1485259003286545  0.2516578611101892
  0.3733333938529736  0.0205102481522880  0.0322810162247060
  0.6263131373227330  0.8311795807410368  0.7184562442301926
  0.3728141051296975  0.8715850563559677  0.7815946445914493
  0.6255105655260743  0.5825195178633520  0.9676894831296536
  0.7475043413239254  0.9845359180453503  0.3138417962059807
  0.7520768304164863  0.7378667749992066  0.5613807397878086
  0.2512529009307450  0.8115016935328194  0.6874611482337570
  0.4995334565533902  0.5245111727189354  0.8772652483342801
  0.3752068950838481  0.9680160211985954  0.2831414855365023
  0.2507370818900015  0.8621465595413573  0.4346638366543303
  0.6238105156106166  0.4314312139579910  0.7192905627450852
  0.2499145556417526  0.3607430315254852  0.9382316122083353
  0.7527163066918018  0.8374711928132871  0.0630814587324462
  0.6260822279836300  0.7318891080192043  0.2172953937773594
 -0.0006750503922147  0.9496034340046338  0.2499236704747916
  0.5008085360987660  0.3756053045464725  0.6234993181866105
  0.6236397087918641  0.2332487131798174  0.7171149733109318
 -0.0005896301103753  0.6989556871738448  0.5007968365832821
  0.3739824514130371  0.2707916514228398  0.7804313930332825
  0.5008346268830639  0.6753315669577038  0.1240941837707306
  0.6228788950288239  0.5340954897641278  0.2188741511925776
  0.1267069207527214  0.6032921365881532  0.3438462352835893
  0.0017255064385610  0.5003770644326919  0.5000022580259104
  0.2506891408400385  0.2139224351385231  0.6867510413157536
  0.7461430031169205  0.1855240214640978  0.3150547534883682
  0.0022233285262721  0.8025638158909945 -0.0021086192787000
  0.2483828914354534  0.5151454867652758  0.1867160454677011
  0.7503779257557535  0.2415289562560062  0.0637956908818703
  0.3713408721093626  0.4208631233942958  0.0332575493569098
  0.6201998906727206  0.1333444226089096  0.2208381242718770
  0.3761341896738314  0.1646103581531673  0.2831038044317870
  0.5017839488240828  0.0266522314114895  0.3753528735855221
  0.1241428278036502  0.2072072105694982  0.3459292061578546
  0.4990584142490381  0.0749719134716611  0.1265019062525598
  0.0003753483868980  0.1995035974417100 -0.0023305628915331
  0.2575040681160798  0.9635349570409527  0.9354899969895329
  0.1239362636917302  0.9087361314255785  0.8429902897536887
  0.6238429246505367  0.8738773767277738  0.4672272518728513
  0.8766622890986573  0.5887941061146224  0.6529033438940862
  0.3800585345695765  0.9170593871603160  0.5276703869362848
  0.1298296341161365  0.9516701239017953  0.5928486687689662
  0.1243007492428520  0.7063657375770149  0.8449825791864142
  0.2544510138011056  0.5591032486725954  0.9344165611589065
  0.7535406272432262  0.7891612914570446  0.3041306635053171
  0.8768102067150998  0.6424845370928842  0.4087346664699562
  0.3719038541548331  0.7230498815378099  0.5306650529401011
  0.5024062930198522  0.5722640310873044  0.6285295639287866
  0.0036412567878072  0.6505285188656775  0.7507803437220724
  0.7479237016870244  0.3358458675149950  0.5646432888872384
  0.3741343622449211  0.5139165371240552  0.5285296695532974
  0.1278643408777747  0.3048257185270455  0.8402156338279401
  0.2460844296411576  0.1626829137837176  0.9400548212712089
  0.7499731693908036  0.3864865388797352  0.3130789339500462
  0.2464339811702862  0.7074382483704933  0.1925966891680903
  0.3790200985660353  0.5628820626334641  0.2830558659946953
  0.0056926425199819  0.7524797630096123  0.2479295281924211
  0.3766778611051857  0.0702864880324299  0.7773536300379407
  0.1268973967357551  0.6577421239925378  0.0860371450261159
  0.4940356595563050  0.2300039806263274  0.3733184755255186
  0.6285586748970439  0.0799771373410263  0.4703566481182134
  0.1231791712080425  0.4565231775762166  0.0971039223126598
 -0.0069212384155728  0.1029378486110418  0.5007904360161975
  0.1247178255179239  0.0049596088857392  0.3445031506229773
  0.1118694557393271  0.0538720310403986  0.0959312922970834
  0.4960457435683514  0.7224618907611898  0.8732655018168614
  0.0011118032262594  0.8501394204579686  0.7475337657896101
  0.4999298971767276  0.8266986801573660  0.3720982535403241
  0.6266443233082540  0.6823678560130390  0.4709563982812990
  0.7490408194013224  0.2876595752316500  0.8104074630191680
  0.6267446562059187  0.1807871290288914  0.9742246186428922
  0.4970219252533705  0.8759970612243513  0.1301396710717274
  0.2514543032031977  0.9113538104665211  0.1877963385656236
  0.1247614743224519  0.8066809829803201  0.3435839226101108
  0.2520892911816786  0.4123469037035793  0.6854404499768170
  0.4944147582381695  0.1270579034295424  0.8754871876332341
 -0.0029312705854833  0.4511985662901618  0.7521584491585518
  0.3715495121154027  0.8202165222280663  0.0361698173626103
  0.1273840599203950  0.8575719378577551  0.0888604972233981
  0.6256736770814282  0.0293927285242014  0.7202349522541639
  0.1243782541621350  0.3588990064829554  0.5974244579373335
  0.0064777731823256  0.2477710130346618  0.7437432360843378
  0.8796725612448834  0.2925921897886458  0.1555653248096321
  0.3747940407140130  0.6208673773952227  0.0329184731742311
  0.3683844310368737  0.3687274123901664  0.2811790873274833
  0.0014742468832900  0.5508856426820183  0.2543107973307039
  0.0010769840255444  0.2977282667325133  0.5012858756448977
  0.1269711096485650  0.1561765216194663  0.5949888851703519
  0.2502480664113716  0.0108561494188830  0.6869491243260401
  0.8673461903061185  0.0941518373901399  0.1606783601973725
  0.7494943070828959  0.0399586599667989  0.0627466820560016
  0.0078036236227114  0.3999007629456856 -0.0045335842918635
  0.1216794437840272  0.2520821493017024  0.0931234472645810
  0.2495876232445545  0.1122341104917425  0.1885902180760868
 
  0.00000000E+00  0.00000000E+00  0.00000000E+00
  0.00000000E+00  0.00000000E+00  0.00000000E+00
  0.00000000E+00  0.00000000E+00  0.00000000E+00
  0.00000000E+00  0.00000000E+00  0.00000000E+00
  0.00000000E+00  0.00000000E+00  0.00000000E+00
  0.00000000E+00  0.00000000E+00  0.00000000E+00
  0.00000000E+00  0.00000000E+00  0.00000000E+00
  0.00000000E+00  0.00000000E+00  0.00000000E+00
  0.00000000E+00  0.00000000E+00  0.00000000E+00
  0.00000000E+00  0.00000000E+00  0.00000000E+00
  0.00000000E+00  0.00000000E+00  0.00000000E+00
  0.00000000E+00  0.00000000E+00  0.00000000E+00
  0.00000000E+00  0.00000000E+00  0.00000000E+00
  0.00000000E+00  0.00000000E+00  0.00000000E+00
  0.00000000E+00  0.00000000E+00  0.00000000E+00
  0.00000000E+00  0.00000000E+00  0.00000000E+00
  0.00000000E+00  0.00000000E+00  0.00000000E+00
  0.00000000E+00  0.00000000E+00  0.00000000E+00
  0.00000000E+00  0.00000000E+00  0.00000000E+00
  0.00000000E+00  0.00000000E+00  0.00000000E+00
  0.00000000E+00  0.00000000E+00  0.00000000E+00
  0.00000000E+00  0.00000000E+00  0.00000000E+00
  0.00000000E+00  0.00000000E+00  0.00000000E+00
  0.00000000E+00  0.00000000E+00  0.00000000E+00
  0.00000000E+00  0.00000000E+00  0.00000000E+00
  0.00000000E+00  0.00000000E+00  0.00000000E+00
  0.00000000E+00  0.00000000E+00  0.00000000E+00
  0.00000000E+00  0.00000000E+00  0.00000000E+00
  0.00000000E+00  0.00000000E+00  0.00000000E+00
  0.00000000E+00  0.00000000E+00  0.00000000E+00
  0.00000000E+00  0.00000000E+00  0.00000000E+00
  0.00000000E+00  0.00000000E+00  0.00000000E+00
  0.00000000E+00  0.00000000E+00  0.00000000E+00
  0.00000000E+00  0.00000000E+00  0.00000000E+00
  0.00000000E+00  0.00000000E+00  0.00000000E+00
  0.00000000E+00  0.00000000E+00  0.00000000E+00
  0.00000000E+00  0.00000000E+00  0.00000000E+00
  0.00000000E+00  0.00000000E+00  0.00000000E+00
  0.00000000E+00  0.00000000E+00  0.00000000E+00
  0.00000000E+00  0.00000000E+00  0.00000000E+00
  0.00000000E+00  0.00000000E+00  0.00000000E+00
  0.00000000E+00  0.00000000E+00  0.00000000E+00
  0.00000000E+00  0.00000000E+00  0.00000000E+00
  0.00000000E+00  0.00000000E+00  0.00000000E+00
  0.00000000E+00  0.00000000E+00  0.00000000E+00
  0.00000000E+00  0.00000000E+00  0.00000000E+00
  0.00000000E+00  0.00000000E+00  0.00000000E+00
  0.00000000E+00  0.00000000E+00  0.00000000E+00
  0.00000000E+00  0.00000000E+00  0.00000000E+00
  0.00000000E+00  0.00000000E+00  0.00000000E+00
  0.00000000E+00  0.00000000E+00  0.00000000E+00
  0.00000000E+00  0.00000000E+00  0.00000000E+00
  0.00000000E+00  0.00000000E+00  0.00000000E+00
  0.00000000E+00  0.00000000E+00  0.00000000E+00
  0.00000000E+00  0.00000000E+00  0.00000000E+00
  0.00000000E+00  0.00000000E+00  0.00000000E+00
  0.00000000E+00  0.00000000E+00  0.00000000E+00
  0.00000000E+00  0.00000000E+00  0.00000000E+00
  0.00000000E+00  0.00000000E+00  0.00000000E+00
  0.00000000E+00  0.00000000E+00  0.00000000E+00
  0.00000000E+00  0.00000000E+00  0.00000000E+00
  0.00000000E+00  0.00000000E+00  0.00000000E+00
  0.00000000E+00  0.00000000E+00  0.00000000E+00
  0.00000000E+00  0.00000000E+00  0.00000000E+00
  0.00000000E+00  0.00000000E+00  0.00000000E+00
  0.00000000E+00  0.00000000E+00  0.00000000E+00
  0.00000000E+00  0.00000000E+00  0.00000000E+00
  0.00000000E+00  0.00000000E+00  0.00000000E+00
  0.00000000E+00  0.00000000E+00  0.00000000E+00
  0.00000000E+00  0.00000000E+00  0.00000000E+00
  0.00000000E+00  0.00000000E+00  0.00000000E+00
  0.00000000E+00  0.00000000E+00  0.00000000E+00
  0.00000000E+00  0.00000000E+00  0.00000000E+00
  0.00000000E+00  0.00000000E+00  0.00000000E+00
  0.00000000E+00  0.00000000E+00  0.00000000E+00
  0.00000000E+00  0.00000000E+00  0.00000000E+00
  0.00000000E+00  0.00000000E+00  0.00000000E+00
  0.00000000E+00  0.00000000E+00  0.00000000E+00
  0.00000000E+00  0.00000000E+00  0.00000000E+00
  0.00000000E+00  0.00000000E+00  0.00000000E+00
  0.00000000E+00  0.00000000E+00  0.00000000E+00
  0.00000000E+00  0.00000000E+00  0.00000000E+00
  0.00000000E+00  0.00000000E+00  0.00000000E+00
  0.00000000E+00  0.00000000E+00  0.00000000E+00
  0.00000000E+00  0.00000000E+00  0.00000000E+00
  0.00000000E+00  0.00000000E+00  0.00000000E+00
  0.00000000E+00  0.00000000E+00  0.00000000E+00
  0.00000000E+00  0.00000000E+00  0.00000000E+00
  0.00000000E+00  0.00000000E+00  0.00000000E+00
  0.00000000E+00  0.00000000E+00  0.00000000E+00
  0.00000000E+00  0.00000000E+00  0.00000000E+00
  0.00000000E+00  0.00000000E+00  0.00000000E+00
  0.00000000E+00  0.00000000E+00  0.00000000E+00
  0.00000000E+00  0.00000000E+00  0.00000000E+00
  0.00000000E+00  0.00000000E+00  0.00000000E+00
  0.00000000E+00  0.00000000E+00  0.00000000E+00
  0.00000000E+00  0.00000000E+00  0.00000000E+00
  0.00000000E+00  0.00000000E+00  0.00000000E+00
  0.00000000E+00  0.00000000E+00  0.00000000E+00
  0.00000000E+00  0.00000000E+00  0.00000000E+00
  0.00000000E+00  0.00000000E+00  0.00000000E+00
  0.00000000E+00  0.00000000E+00  0.00000000E+00
  0.00000000E+00  0.00000000E+00  0.00000000E+00
  0.00000000E+00  0.00000000E+00  0.00000000E+00
  0.00000000E+00  0.00000000E+00  0.00000000E+00
  0.00000000E+00  0.00000000E+00  0.00000000E+00
  0.00000000E+00  0.00000000E+00  0.00000000E+00
  0.00000000E+00  0.00000000E+00  0.00000000E+00
  0.00000000E+00  0.00000000E+00  0.00000000E+00
  0.00000000E+00  0.00000000E+00  0.00000000E+00
  0.00000000E+00  0.00000000E+00  0.00000000E+00
  0.00000000E+00  0.00000000E+00  0.00000000E+00
  0.00000000E+00  0.00000000E+00  0.00000000E+00
  0.00000000E+00  0.00000000E+00  0.00000000E+00
  0.00000000E+00  0.00000000E+00  0.00000000E+00
  0.00000000E+00  0.00000000E+00  0.00000000E+00
  0.00000000E+00  0.00000000E+00  0.00000000E+00
  0.00000000E+00  0.00000000E+00  0.00000000E+00
  0.00000000E+00  0.00000000E+00  0.00000000E+00
  0.00000000E+00  0.00000000E+00  0.00000000E+00
  0.00000000E+00  0.00000000E+00  0.00000000E+00
  0.00000000E+00  0.00000000E+00  0.00000000E+00
  0.00000000E+00  0.00000000E+00  0.00000000E+00
  0.00000000E+00  0.00000000E+00  0.00000000E+00
  0.00000000E+00  0.00000000E+00  0.00000000E+00
  0.00000000E+00  0.00000000E+00  0.00000000E+00
  0.00000000E+00  0.00000000E+00  0.00000000E+00
  0.00000000E+00  0.00000000E+00  0.00000000E+00
  0.00000000E+00  0.00000000E+00  0.00000000E+00
  0.00000000E+00  0.00000000E+00  0.00000000E+00
  0.00000000E+00  0.00000000E+00  0.00000000E+00
  0.00000000E+00  0.00000000E+00  0.00000000E+00
  0.00000000E+00  0.00000000E+00  0.00000000E+00
  0.00000000E+00  0.00000000E+00  0.00000000E+00
  0.00000000E+00  0.00000000E+00  0.00000000E+00
  0.00000000E+00  0.00000000E+00  0.00000000E+00
  0.00000000E+00  0.00000000E+00  0.00000000E+00
  0.00000000E+00  0.00000000E+00  0.00000000E+00
  0.00000000E+00  0.00000000E+00  0.00000000E+00
  0.00000000E+00  0.00000000E+00  0.00000000E+00
  0.00000000E+00  0.00000000E+00  0.00000000E+00
  0.00000000E+00  0.00000000E+00  0.00000000E+00
  0.00000000E+00  0.00000000E+00  0.00000000E+00
  0.00000000E+00  0.00000000E+00  0.00000000E+00
  0.00000000E+00  0.00000000E+00  0.00000000E+00
  0.00000000E+00  0.00000000E+00  0.00000000E+00
  0.00000000E+00  0.00000000E+00  0.00000000E+00
  0.00000000E+00  0.00000000E+00  0.00000000E+00
  0.00000000E+00  0.00000000E+00  0.00000000E+00
  0.00000000E+00  0.00000000E+00  0.00000000E+00
  0.00000000E+00  0.00000000E+00  0.00000000E+00
  0.00000000E+00  0.00000000E+00  0.00000000E+00
  0.00000000E+00  0.00000000E+00  0.00000000E+00
  0.00000000E+00  0.00000000E+00  0.00000000E+00
  0.00000000E+00  0.00000000E+00  0.00000000E+00
  0.00000000E+00  0.00000000E+00  0.00000000E+00
  0.00000000E+00  0.00000000E+00  0.00000000E+00
  0.00000000E+00  0.00000000E+00  0.00000000E+00
  0.00000000E+00  0.00000000E+00  0.00000000E+00
  0.00000000E+00  0.00000000E+00  0.00000000E+00
