FeNiCoCrMn_SQSfcc160_31_36              
   3.50000000000000     
    -1.5200103994360485    0.5033798632485138   -2.0272372788737765
     2.0260351249433319   -2.0182127384085025   -2.0279199583875331
    -3.0387974463204741   -3.0243892799902512    2.0252545195021914
   Fe   Ni   Co   Cr   Mn
    31    31    31    36    31
Direct
  0.9784946133488470  0.3594658176745082  0.0851335568535096
  0.8501308271149033  0.1700987861258415  0.0262601844549991
  0.8342323229842264  0.0361388318185154  0.1124500589081122
  0.8745837185605089  0.3163446481031874  0.4383075733325394
  0.8492897009301057  0.1785096161257992  0.5279069352494677
  0.9028799567660398  0.9491454428003236  0.3454399719480262
  0.7668025534719354  0.7592290342568000  0.2867779773344103
  0.9181144999763295  0.5873088526083848  0.7632131516819594
  0.8242561469627925  0.5348999808238732  0.6106709966840561
  0.4298384849800949  0.3404721781703995  0.0135832943360389
  0.6922893768945222  0.3512944995573454  0.5491750704236238
  0.4763222994391831  0.1138788655795628  0.3392546283477741
  0.7941827963651108  0.8988030347093001  0.6995303670275098
  0.3980795556612941  0.6992993563875017  0.1001909429526348
  0.7684949998524151  0.7622066758552660  0.7884810986153363
  0.6497800288075051  0.5772921806159367  0.7251578307955620
  0.5232504723286614  0.3933162447352754  0.6617899247178565
  0.6020816461273317  0.3007181068266366  0.9035434877563547
  0.2723024359358714  0.0136692600920844  0.5370962913464156
  0.4227850042253530  0.8367423585664089  0.5115266353684021
  0.2972146862212223  0.6522682490332208  0.4473864734838404
  0.5751949954608053  0.6613714766121683  0.9873586565577477
  0.0770131456873516  0.4134466679011495  0.2386147867830448
  0.4459561891028108  0.4746001358753087  0.9214966849136272
  0.3452194870171922  0.4301023686415013  0.7714634044986123
  0.2212661769427220  0.2408105609739709  0.7140693165654579
  0.1204281219383014  0.1928572810512110  0.5631295063051299
  0.1858743288167319  0.9627522506436038  0.3884851514744027
  0.2283644381160521  0.7424201874545689  0.7147044173910314
  0.1030886301186434  0.5523761258431675  0.6489309370898716
  0.0725735292054154  0.4182197014516112  0.7355492512412704
  0.9488124234610460  0.2265198871616568  0.1764459863831512
  0.9513168808530020  0.7236336962350319  0.1782720613135437
  0.7034465148613001  0.3472249167685530  0.0517972213629355
  0.6988421314863293  0.8479865494504714  0.0505306888448352
  0.8750033037422474  0.8124775062629848  0.4354056138251953
  0.6772279978084439  0.7108989321085595  0.1368200051399232
  0.5259007853513923  0.3862123501338462  0.1630920549963725
  0.8760359574040761  0.3098729521709130  0.9379095291006735
  0.6702545932172124  0.2147795776236905  0.6388983808059853
  0.7471316750792517  0.1233111426849063  0.8762317598961310
  0.5245265648589619  0.8843811167693707  0.1629149989473935
  0.4283684006335218  0.8356114755225265  0.0128009537724569
  0.8950627568557969  0.9474304917006446  0.8480354911942740
  0.8742068838985189  0.8109124231322944  0.9385457546695670
  0.6734447713421782  0.7127863600205313  0.6364370870683811
  0.2229167413440645  0.2363224848470777  0.2128657554892144
  0.4757350781949640  0.1130726231002048  0.8382913611595084
  0.3545165490180261  0.9232199793283550  0.2747302008054481
  0.7265794023206485  0.9841993144602850  0.9626194669601059
  0.5230538104267660  0.8864345592301873  0.6611247044421911
  0.2249546664835365  0.7373268034129704  0.2125901559045287
  0.3961361686338539  0.6986059860534277  0.5978981311710496
  0.1760014334821474  0.4637280085038764  0.3867592378957588
  0.1473257837987130  0.3275190226586480  0.4742879665639151
  0.3272952285597464  0.2881755082485022  0.8622216405691920
  0.2034106096940323  0.1016333231782108  0.7989245538411068
  0.1017348756623190  0.0543375365034593  0.6492753412580422
  0.3516770366055579  0.9260113323895156  0.7735126736396746
  0.1517701960642246  0.8274968908211812  0.4758774715707919
  0.0268092506434158  0.6382372868750515  0.4138635838126877
  0.1540258079981348  0.3243035068333894  0.9743808383634736
  0.9244764791596767  0.0884543221977202  0.2617425062725998
  0.9271142061876186  0.5885371182378534  0.2652902839614660
  0.9735488930953030  0.3649916113575401  0.5858747463709247
  0.7741981920972032  0.2596853885255107  0.2895954265334618
  0.6737625776603171  0.2112985965902373  0.1404538387953677
  0.7501572639757041  0.6236328553363343  0.3726082409959214
  0.6284423363437407  0.4353142956384563  0.3127160512920752
  0.5954083069437414  0.2971113107122402  0.3977257237668450
  0.5735474331118169  0.1627804025398202  0.4870057523009211
  0.6490463817375297  0.0714579609687856  0.7254971327079051
  0.6994652293784488  0.8505309734729259  0.5505030560967231
  0.4994090131415606  0.7468882228201745  0.2520979959880177
  0.2719399750056814  0.5101618711654624  0.0360996579978965
  0.3540025734565427  0.4227997703942095  0.2764294111078305
  0.4251107192769574  0.3413489962182519  0.5114272309987843
  0.1241225619184282  0.1826952757937539  0.0624772114755658
  0.0041420629244902  0.9955811290904086 -0.0007206268660473
  0.2491483076502769  0.8741543345058527  0.1235555005901466
  0.6237018886982569  0.9366502448791687  0.8108453296380236
  0.1242748335064728  0.6831263387200990  0.0648430599632470
  0.2070065387107998  0.5987834778465743  0.2988731881521596
  0.0999745148166627  0.5497493609000574  0.1505893470042987
  0.0027391855516534  0.4975220067769677  0.0014821034038875
  0.4731683553553969  0.6152362525695052  0.8388763856170700
  0.3744304408688286  0.5657115977002635  0.6869785982394233
  0.2484011634861656  0.3791776712184939  0.6228163902633335
  0.0455532121284191  0.2764107509558155  0.3236625854051166
  0.2512927015571434  0.8778924981301571  0.6244953765485683
  0.0010664228616640  0.5035875974094480  0.5011484734713286
  0.1749456170505292  0.4583597023825729  0.8860113985412980
  0.0535732663327218  0.2738519907664559  0.8248311800306505
  0.9736687874210935  0.8563027828133539  0.0881848625122552
  0.8472059828867479  0.6677049352917419  0.0239960042489371
  0.8350588766208897  0.5336377039527780  0.1202312331615205
  0.9006496294208692  0.4559525071557053  0.3523016523795751
  0.7939840313901951  0.4005592052285534  0.2011858882327346
  0.7451272784617423  0.1272222611693067  0.3780078096775288
  0.6531318941943203  0.0729760185848766  0.2234050577996501
  0.8240500255330847  0.0446685007862395  0.6174731242295276
  0.5548348251231048  0.5231944423153427  0.0721998689261356
  0.7957943870026802  0.4042512659474138  0.6955111809841581
  0.5030819467241058  0.2540754264013861  0.2528220840822686
  0.3679439821822701  0.0555144880188476  0.1865195358995296
  0.4841508785740949  0.6028876300535948  0.3317442796644988
  0.3712652290762331  0.5616421652457748  0.1860217794425318
  0.7459138596165330  0.6284076784313706  0.8691945139373601
  0.5578944056437922  0.5255107341755249  0.5816753624926985
  0.7290571615105430  0.4847147860717487  0.9635677619132619
  0.6106387969024762  0.4399412348158372  0.8112866544745906
  0.3005541687643422  0.1557107160150836  0.4582784206782221
  0.2032495191862200  0.1006470038889566  0.3014515681220762
  0.0977500612894170  0.0518469425806316  0.1444593019839184
  0.3783813187696987  0.0673600661448340  0.6851558175098277
  0.4597010948318337  0.9800359688462459  0.4231439860953518
  0.3288256880580646  0.7846036419879122  0.3614206633841146
  0.4978487396724892  0.7488078871946574  0.7502642193401521
  0.2750071498198205  0.5111022490121214  0.5373286482858793
  0.3043620740500216  0.1541098042249531  0.9536139483596690
  0.3192598145924424  0.7925251840048692  0.8669063520384502
  0.1182801430454864  0.6977666979511877  0.5677134079048152
  0.3079254580419265  0.6414638862273294  0.9538421886709388
  0.0268913756620483  0.1356657565534015  0.9140243336277664
  0.1665756498491754  0.9610897859228905  0.8804908275081360
  0.0750740963120621  0.9115455086133276  0.7313909144717363
  0.1503568817378529  0.8184221982252520  0.9780899535380481
  0.0308993460221658  0.7707429972977689  0.8225439163893953
  0.0261345550608330  0.6302627919574860  0.9149883330360905
  0.9439031281620290  0.2327518083942313  0.6793798569573242
  0.5539545652213699  0.0241075773349048  0.0759227787146301
  0.9298910660649927  0.0859990784436168  0.7657540632655392
  0.8028239175204589  0.9009976100627461  0.1982665139435912
  0.9733837605883818  0.8707637618702325  0.5858619558111139
  0.9437686762231607  0.7202133498411128  0.6767111592839696
  0.8413596427180743  0.6723643811019856  0.5206307247919777
  0.6542170734266222  0.5771325192783004  0.2249693121224302
  0.7262995940086969  0.4857773594808697  0.4596936290662726
  0.8962732125191667  0.4469641515197799  0.8503709746169779
  0.3995363955404138  0.1989589002916449  0.1034910524181070
  0.7767309104745073  0.2568901295650418  0.7873758901548608
  0.2745705440092741  0.0044572944726523  0.0274672988893629
  0.5535958811964257  0.0242686851388379  0.5736308122179402
  0.7395671102467437  0.9873974266479180  0.4622674943704692
  0.6264974961154425  0.9384559201331741  0.3101508257398607
  0.5981393064626240  0.7992397768809157  0.4019834485355056
  0.5700552697994327  0.6667234218827138  0.4849873253710706
  0.4569530418922864  0.4756756843225482  0.4268319152332859
  0.2556530752244457  0.3711569557095626  0.1247365460245675
  0.3185004573032443  0.2831535506596992  0.3625325258779706
  0.5046675680299204  0.2529041761402911  0.7526637063694325
  0.4004958830295166  0.2093874459101603  0.6011872733707405
  0.5731621796564093  0.1599644733857126  0.9898379753654190
  0.5987233207752370  0.7982354552268788  0.9000822505736733
  0.0237092717709664  0.1357157513573287  0.4094920133349237
  0.0067253074008531  0.0032992442832246  0.4960680122585504
  0.0843604817824236  0.9206678915425811  0.2380422612598873
  0.4539621899894694  0.9734460670218686  0.9219737822542092
  0.0512861809782769  0.7730416713584802  0.3268189878785759
  0.1956242756849671  0.6088093807068583  0.8045103870534710
 
  0.00000000E+00  0.00000000E+00  0.00000000E+00
  0.00000000E+00  0.00000000E+00  0.00000000E+00
  0.00000000E+00  0.00000000E+00  0.00000000E+00
  0.00000000E+00  0.00000000E+00  0.00000000E+00
  0.00000000E+00  0.00000000E+00  0.00000000E+00
  0.00000000E+00  0.00000000E+00  0.00000000E+00
  0.00000000E+00  0.00000000E+00  0.00000000E+00
  0.00000000E+00  0.00000000E+00  0.00000000E+00
  0.00000000E+00  0.00000000E+00  0.00000000E+00
  0.00000000E+00  0.00000000E+00  0.00000000E+00
  0.00000000E+00  0.00000000E+00  0.00000000E+00
  0.00000000E+00  0.00000000E+00  0.00000000E+00
  0.00000000E+00  0.00000000E+00  0.00000000E+00
  0.00000000E+00  0.00000000E+00  0.00000000E+00
  0.00000000E+00  0.00000000E+00  0.00000000E+00
  0.00000000E+00  0.00000000E+00  0.00000000E+00
  0.00000000E+00  0.00000000E+00  0.00000000E+00
  0.00000000E+00  0.00000000E+00  0.00000000E+00
  0.00000000E+00  0.00000000E+00  0.00000000E+00
  0.00000000E+00  0.00000000E+00  0.00000000E+00
  0.00000000E+00  0.00000000E+00  0.00000000E+00
  0.00000000E+00  0.00000000E+00  0.00000000E+00
  0.00000000E+00  0.00000000E+00  0.00000000E+00
  0.00000000E+00  0.00000000E+00  0.00000000E+00
  0.00000000E+00  0.00000000E+00  0.00000000E+00
  0.00000000E+00  0.00000000E+00  0.00000000E+00
  0.00000000E+00  0.00000000E+00  0.00000000E+00
  0.00000000E+00  0.00000000E+00  0.00000000E+00
  0.00000000E+00  0.00000000E+00  0.00000000E+00
  0.00000000E+00  0.00000000E+00  0.00000000E+00
  0.00000000E+00  0.00000000E+00  0.00000000E+00
  0.00000000E+00  0.00000000E+00  0.00000000E+00
  0.00000000E+00  0.00000000E+00  0.00000000E+00
  0.00000000E+00  0.00000000E+00  0.00000000E+00
  0.00000000E+00  0.00000000E+00  0.00000000E+00
  0.00000000E+00  0.00000000E+00  0.00000000E+00
  0.00000000E+00  0.00000000E+00  0.00000000E+00
  0.00000000E+00  0.00000000E+00  0.00000000E+00
  0.00000000E+00  0.00000000E+00  0.00000000E+00
  0.00000000E+00  0.00000000E+00  0.00000000E+00
  0.00000000E+00  0.00000000E+00  0.00000000E+00
  0.00000000E+00  0.00000000E+00  0.00000000E+00
  0.00000000E+00  0.00000000E+00  0.00000000E+00
  0.00000000E+00  0.00000000E+00  0.00000000E+00
  0.00000000E+00  0.00000000E+00  0.00000000E+00
  0.00000000E+00  0.00000000E+00  0.00000000E+00
  0.00000000E+00  0.00000000E+00  0.00000000E+00
  0.00000000E+00  0.00000000E+00  0.00000000E+00
  0.00000000E+00  0.00000000E+00  0.00000000E+00
  0.00000000E+00  0.00000000E+00  0.00000000E+00
  0.00000000E+00  0.00000000E+00  0.00000000E+00
  0.00000000E+00  0.00000000E+00  0.00000000E+00
  0.00000000E+00  0.00000000E+00  0.00000000E+00
  0.00000000E+00  0.00000000E+00  0.00000000E+00
  0.00000000E+00  0.00000000E+00  0.00000000E+00
  0.00000000E+00  0.00000000E+00  0.00000000E+00
  0.00000000E+00  0.00000000E+00  0.00000000E+00
  0.00000000E+00  0.00000000E+00  0.00000000E+00
  0.00000000E+00  0.00000000E+00  0.00000000E+00
  0.00000000E+00  0.00000000E+00  0.00000000E+00
  0.00000000E+00  0.00000000E+00  0.00000000E+00
  0.00000000E+00  0.00000000E+00  0.00000000E+00
  0.00000000E+00  0.00000000E+00  0.00000000E+00
  0.00000000E+00  0.00000000E+00  0.00000000E+00
  0.00000000E+00  0.00000000E+00  0.00000000E+00
  0.00000000E+00  0.00000000E+00  0.00000000E+00
  0.00000000E+00  0.00000000E+00  0.00000000E+00
  0.00000000E+00  0.00000000E+00  0.00000000E+00
  0.00000000E+00  0.00000000E+00  0.00000000E+00
  0.00000000E+00  0.00000000E+00  0.00000000E+00
  0.00000000E+00  0.00000000E+00  0.00000000E+00
  0.00000000E+00  0.00000000E+00  0.00000000E+00
  0.00000000E+00  0.00000000E+00  0.00000000E+00
  0.00000000E+00  0.00000000E+00  0.00000000E+00
  0.00000000E+00  0.00000000E+00  0.00000000E+00
  0.00000000E+00  0.00000000E+00  0.00000000E+00
  0.00000000E+00  0.00000000E+00  0.00000000E+00
  0.00000000E+00  0.00000000E+00  0.00000000E+00
  0.00000000E+00  0.00000000E+00  0.00000000E+00
  0.00000000E+00  0.00000000E+00  0.00000000E+00
  0.00000000E+00  0.00000000E+00  0.00000000E+00
  0.00000000E+00  0.00000000E+00  0.00000000E+00
  0.00000000E+00  0.00000000E+00  0.00000000E+00
  0.00000000E+00  0.00000000E+00  0.00000000E+00
  0.00000000E+00  0.00000000E+00  0.00000000E+00
  0.00000000E+00  0.00000000E+00  0.00000000E+00
  0.00000000E+00  0.00000000E+00  0.00000000E+00
  0.00000000E+00  0.00000000E+00  0.00000000E+00
  0.00000000E+00  0.00000000E+00  0.00000000E+00
  0.00000000E+00  0.00000000E+00  0.00000000E+00
  0.00000000E+00  0.00000000E+00  0.00000000E+00
  0.00000000E+00  0.00000000E+00  0.00000000E+00
  0.00000000E+00  0.00000000E+00  0.00000000E+00
  0.00000000E+00  0.00000000E+00  0.00000000E+00
  0.00000000E+00  0.00000000E+00  0.00000000E+00
  0.00000000E+00  0.00000000E+00  0.00000000E+00
  0.00000000E+00  0.00000000E+00  0.00000000E+00
  0.00000000E+00  0.00000000E+00  0.00000000E+00
  0.00000000E+00  0.00000000E+00  0.00000000E+00
  0.00000000E+00  0.00000000E+00  0.00000000E+00
  0.00000000E+00  0.00000000E+00  0.00000000E+00
  0.00000000E+00  0.00000000E+00  0.00000000E+00
  0.00000000E+00  0.00000000E+00  0.00000000E+00
  0.00000000E+00  0.00000000E+00  0.00000000E+00
  0.00000000E+00  0.00000000E+00  0.00000000E+00
  0.00000000E+00  0.00000000E+00  0.00000000E+00
  0.00000000E+00  0.00000000E+00  0.00000000E+00
  0.00000000E+00  0.00000000E+00  0.00000000E+00
  0.00000000E+00  0.00000000E+00  0.00000000E+00
  0.00000000E+00  0.00000000E+00  0.00000000E+00
  0.00000000E+00  0.00000000E+00  0.00000000E+00
  0.00000000E+00  0.00000000E+00  0.00000000E+00
  0.00000000E+00  0.00000000E+00  0.00000000E+00
  0.00000000E+00  0.00000000E+00  0.00000000E+00
  0.00000000E+00  0.00000000E+00  0.00000000E+00
  0.00000000E+00  0.00000000E+00  0.00000000E+00
  0.00000000E+00  0.00000000E+00  0.00000000E+00
  0.00000000E+00  0.00000000E+00  0.00000000E+00
  0.00000000E+00  0.00000000E+00  0.00000000E+00
  0.00000000E+00  0.00000000E+00  0.00000000E+00
  0.00000000E+00  0.00000000E+00  0.00000000E+00
  0.00000000E+00  0.00000000E+00  0.00000000E+00
  0.00000000E+00  0.00000000E+00  0.00000000E+00
  0.00000000E+00  0.00000000E+00  0.00000000E+00
  0.00000000E+00  0.00000000E+00  0.00000000E+00
  0.00000000E+00  0.00000000E+00  0.00000000E+00
  0.00000000E+00  0.00000000E+00  0.00000000E+00
  0.00000000E+00  0.00000000E+00  0.00000000E+00
  0.00000000E+00  0.00000000E+00  0.00000000E+00
  0.00000000E+00  0.00000000E+00  0.00000000E+00
  0.00000000E+00  0.00000000E+00  0.00000000E+00
  0.00000000E+00  0.00000000E+00  0.00000000E+00
  0.00000000E+00  0.00000000E+00  0.00000000E+00
  0.00000000E+00  0.00000000E+00  0.00000000E+00
  0.00000000E+00  0.00000000E+00  0.00000000E+00
  0.00000000E+00  0.00000000E+00  0.00000000E+00
  0.00000000E+00  0.00000000E+00  0.00000000E+00
  0.00000000E+00  0.00000000E+00  0.00000000E+00
  0.00000000E+00  0.00000000E+00  0.00000000E+00
  0.00000000E+00  0.00000000E+00  0.00000000E+00
  0.00000000E+00  0.00000000E+00  0.00000000E+00
  0.00000000E+00  0.00000000E+00  0.00000000E+00
  0.00000000E+00  0.00000000E+00  0.00000000E+00
  0.00000000E+00  0.00000000E+00  0.00000000E+00
  0.00000000E+00  0.00000000E+00  0.00000000E+00
  0.00000000E+00  0.00000000E+00  0.00000000E+00
  0.00000000E+00  0.00000000E+00  0.00000000E+00
  0.00000000E+00  0.00000000E+00  0.00000000E+00
  0.00000000E+00  0.00000000E+00  0.00000000E+00
  0.00000000E+00  0.00000000E+00  0.00000000E+00
  0.00000000E+00  0.00000000E+00  0.00000000E+00
  0.00000000E+00  0.00000000E+00  0.00000000E+00
  0.00000000E+00  0.00000000E+00  0.00000000E+00
  0.00000000E+00  0.00000000E+00  0.00000000E+00
  0.00000000E+00  0.00000000E+00  0.00000000E+00
  0.00000000E+00  0.00000000E+00  0.00000000E+00
  0.00000000E+00  0.00000000E+00  0.00000000E+00
  0.00000000E+00  0.00000000E+00  0.00000000E+00
  0.00000000E+00  0.00000000E+00  0.00000000E+00
  0.00000000E+00  0.00000000E+00  0.00000000E+00
