FeNiCoCrPd_SQSfcc24_Pd64                
   3.80000000000000     
     2.3211035069201271   -1.3938800936649902    1.8673449027753366
     1.3933146355339143    2.3289225846248258   -1.8638099371016030
    -1.3886638040206503    2.3276556813449356    1.8657788584417905
   Fe   Ni   Co   Cr   Pd
    24    24    24    24    64
Direct
  0.0296926600128576  0.9515045750524078  0.6668482942049632
  0.0656402229843019  0.5053260660149878  0.9347319681092970
  0.0937166663773724  0.4489431669423412  0.6027012649026217
  0.3124487942629964  0.8987511942839677  0.0838332456355188
  0.4377931518699075  0.7012157595078337  0.7655852535111870
  0.4066975212517129  0.5509981935635263  0.8943416817937919
  0.3722219711297780  0.5991797632141993  0.2253428562172020
  0.5031248083118874  0.7974529507837972  0.2997442271549547
  0.4688964360743489  0.6455679741919120  0.4277349426441318
  0.4411654087812015  0.5039066226258161  0.5624359860773573
  0.2497769735290735  0.0003532211317632  0.7477756172213310
  0.6539547922232888  0.5485268110960442  0.6474917227771380
  0.7810295470052380  0.7537324392953694  0.7213593774574076
  0.3707622801681394  0.9964480617556014  0.6236337046202092
  0.6256238565716956  0.4033260382578528  0.7791085904747671
  0.8788997632194073  0.8032839433354779  0.9257616884474705
  0.7188885970470026  0.4526623812339975  0.9797859182138203
  0.5907528129966308  0.4449290618052175  0.1053188505648630
  0.9073392130275287  0.7509424309750390  0.5927855022244877
  0.9720093345771046  0.6521873984616419  0.9317757234541528
  0.6882783793139943  0.0980107084277609  0.9171154298712378
  0.5635826809751335  0.1003359782847853  0.0405609661738884
  0.8440522445179713  0.2470027291580894  0.6569554493303844
  0.8103912569333277  0.0986306151340128  0.7907206178843498
  0.9996992481593672  0.8021933534204240  0.7987666131063855
  0.0603786135308805  0.2996570509933649  0.7358177214829709
  0.1568120062052745  0.5507470601782983  0.1438397458197747
  0.1282460533496970  0.3998656147357635  0.2759399199736343
  0.4696291910210987  0.8506731180078121  0.6342922866314394
  0.2819365791429516  0.3510002101579305  0.8173771160834139
  0.1231691041880719  1.0009177450475080  0.8739800307797699
  0.4091742610466561  0.7506877936375141  0.0946958906704639
  0.5310725315469752  0.9479958821951143  0.1672823404009010
  0.0950288349273096  0.0527559625503544  0.2068511441899452
  0.2208791091592003  0.2512672159182211  0.2817241013410149
  0.4055473475079261  0.3495708154024641  0.6915562003205182
  0.3716707785183117  0.1978861639893799  0.8219605238006840
  0.6565736899774500  0.9486132209255356  0.0451125552846293
  0.8144616142076402  0.8991009936051820  0.5911505979610199
  0.4972068935450453  0.1985814750192723  0.6988241027724141
  0.7197181958483047  0.6503144601128441  0.1819717671382420
  0.4369105274108028  0.1003301063001791  0.1624014051848235
  0.6559006705083145  0.3490241807200306  0.4468472080150098
  0.9703752546601886  0.8505156368914794  0.1328035051165024
  0.8760866561344292  0.4001651388441536  0.5281064501838347
  0.9387384011531583  0.5031930850542329  0.0628911812674269
  0.7805402771428963  0.1473531859067756  0.1217557499994944
  0.9678546173903778  0.0489432078506580  0.3295170624729494
  0.1557184257878044  0.9519290906560204  0.5428268062626113
  0.1251088026508137  0.8021774402591518  0.6753838251596385
  0.0958244132563429  0.8515147282063226  0.0068585537188479
  0.1583320783887137  0.7490726240667044  0.3434362664861771
  0.1252774141360585  0.6006010568441414  0.4712081104111715
  0.4360612494538468  0.8977141215635436  0.9592516631964646
  0.2534529515690718  0.6026605374411498  0.3494226817698872
  0.0622357584549984  0.1002371736881525  0.5376862083126944
  0.0048519162530805  0.0035619589806857  0.0011675712194910
  0.2524755806862896  0.3999707157456583  0.1513621109836120
  0.3439606107670488  0.4506299950751010  0.3561677419143263
  0.6886296432269342  0.8981147293365552  0.7152604067212230
  0.2768714943880519  0.1477020336728652  0.6155514115242436
  0.7807650112897356  0.9489634479649798  0.9169921495668578
  0.5022273183382604  0.4012562845279665  0.9012005402718577
  0.6260385421611901  0.7977262735825241  0.1764575380691289
  0.3141748741875521  0.1011615837973677  0.2894673870337444
  0.9053465163072790  0.9521228068247816  0.7956169681855801
  0.9350857636934915  0.8979464434963785  0.4613521435350675
  0.4982181401466713  0.0000500767676831  0.4999163727663233
  0.6251589869467559  0.1988829108752806  0.5761933626714155
  0.6541681650438594  0.1480045884109014  0.2466506221173968
  0.9731668031759572  0.4547434791967117  0.7321026271848038
  0.9353829921284484  0.1003172099851719  0.6646532064278249
  0.0658847083266024  0.7045547749087825  0.1330756870123431
  0.2825627665412555  0.9500549070501202  0.4201407809647528
  0.3406434886952457  0.8481138372360717  0.7580625559291468
  0.1856445406886671  0.4959094699090955  0.8052563297516022
  0.3161151755410494  0.6981536435031096  0.8894258280635017
  0.0384260000485691  0.3597111708157227  0.0630661762458940
  0.3980791889791260  0.9461975956587105  0.2846213740700703
  0.0015446120685102  0.2056084574720412  0.1989561934437411
  0.3765233056263205  0.7999654525538932  0.4262655748936688
  0.1912885891977704  0.3042017513156594  0.6074413756630103
  0.5683949430093225  0.8985361786441994  0.8417677864586399
  0.6175277344307112  0.5907359351562148  0.9765340284063427
  0.3396809600905696  0.0445402839177851  0.9518396554415444
  0.4675540800031091  0.4556109682620935  0.2315197939579876
  0.4642377584089621  0.2495189018130396  0.0262016601039699
  0.5678983564238663  0.3005398924156247  0.2405173748381004
  0.6877315145933041  0.4995060790806592  0.3124046384383510
  0.5256824497254063  0.1474719377373386  0.3720681041275189
  0.7141130227209050  0.2426501856606341  0.7844743702404978
  0.6847248919099023  0.2953162685365411  0.1138220415233206
  0.6167548008331083  0.9966068828418024  0.3707181895956922
  0.7196292999735288  0.0514847879187042  0.5861529715819565
  0.9016604800592328  0.1507640557883693  0.9905093248340654
  0.9107881372503107  0.3530435183037508  0.1958987260695998
  0.0597682559579383  0.8957464899129474  0.3394010846521953
  0.0323849663632301  0.7490675568587507  0.4688576565822509
  0.0035925720565223  0.6011683068873128  0.5964636869580880
  0.0904936517799554  0.6543119299371276  0.8014828280386307
  0.2154864373651039  0.8490891970446075  0.8785402217171867
  0.1903458049792587  0.9019277023292727  0.2141660219770332
  0.0368791649255958  0.5530742511575373  0.2709358050458794
  0.9943141834734892  0.3986379343634087  0.3963864278532453
  0.2418907995686638  0.7999135484606773  0.5474621151883903
  0.2208224946922132  0.6535523546679852  0.6731805515231992
  0.0266340850310390  0.1494289888626513  0.8711310235858116
  0.1588302598380464  0.3523555307813760  0.9440107529729730
  0.1906986783162313  0.7032440371784481  0.0158597727942662
  0.2829173491335827  0.7496088928750898  0.2204635371660303
  0.0908240734002933  0.2490509315865308  0.4072511323648183
  0.2201324970733111  0.4546949136175051  0.4800826611704014
  0.3447828313271693  0.6546056472627300  0.5557796535773899
  0.3161689369190707  0.5049794855532284  0.6910109903611180
  0.1542890480033462  0.1531558456675277  0.7396076123964289
  0.5337674125136351  0.7531862473477233  0.9682179929477349
  0.2494897848688277  0.1983901929943497  0.9485727908255142
  0.2852988147426055  0.5492852577141965  0.0245017419761175
  0.1282787171137307  0.2027431714648836  0.0724460052840602
  0.5964423665049837  0.8529182573489029  0.5086493427178831
  0.1881805972803719  0.1059830198994917  0.4139137540249845
  0.3147092397250680  0.3034433631070657  0.4860694754982420
  0.5621922673635370  0.7005420433131694  0.6350293427066233
  0.5278339894920875  0.5468168629528996  0.7671468552206565
  0.6564033500819847  0.7454713628378541  0.8413648982363983
  0.3732774524623493  0.4015786491478643  0.0227081755855528
  0.5003663669363621  0.6022985189624639  0.1013375191054875
  0.2201817582259923  0.0507670463480600  0.0821383088085789
  0.3477211184120738  0.2534818030897132  0.1564319269130352
  0.5950165123789622  0.6509298784981992  0.3069221340087723
  0.7187106158025015  0.8449546988172100  0.3892481318743662
  0.4417754330814708  0.3007949483725224  0.3640567000387637
  0.5590677210485113  0.5001982280055328  0.4385863229950460
  0.6884941251563116  0.6930791979100983  0.5146952455222092
  0.4072984404573581  0.1495295244862460  0.4965342730501110
  0.5331350826241209  0.3512614371702281  0.5714698749177207
  0.7511927703304768  0.6035927948561386  0.8512647853018963
  0.4673592230420914  0.0509248275872424  0.8322848155546160
  0.5873958000783891  0.2503038516030008  0.9049841823012027
  0.7470953748257285  0.7953417151454276  0.0437195302666232
  0.8446385718171422  0.8503159020036698  0.2575113419884412
  0.8180130990841842  0.7001777707969812  0.3866982407781487
  0.7815795128034022  0.5483311112253801  0.5209276269675576
  0.7496713214048405  0.3941317985266137  0.6534323395962880
  0.8739299735957079  0.6010521359692460  0.7274176983974736
  0.5906090341077495  0.0495314236215609  0.7045907777693342
  0.8485949943732428  0.4524943914557525  0.8595797632857256
  0.8130054838155155  0.3021733323750414  0.9920773286409228
  0.8401943830677154  0.6526878447048491  0.0536613716124097
  0.8084740133920957  0.4957342573707472  0.1849676553666884
  0.9389111050240962  0.6920194027341064  0.2553768770060993
  0.7804956696713689  0.3464838123232408  0.3238639927196046
  0.9111844121238659  0.5453772543225160  0.3927748255954512
  0.7470837272929968  0.2016183543894554  0.4502442788998960
  0.9352252587095515  0.3033817181730143  0.8565892368918933
  0.7456490601736482  0.9957442203953434  0.2531299587025990
  0.8679363480609773  0.1912882923674200  0.3229750809722395
  0.8458985047913004  0.0471523662091918  0.4622924659346981
  0.9647943924687410  0.2476403987967311  0.5308157693525691
  0.8761966224403919 -0.0031952412098311  0.1208647917848665
 
  0.00000000E+00  0.00000000E+00  0.00000000E+00
  0.00000000E+00  0.00000000E+00  0.00000000E+00
  0.00000000E+00  0.00000000E+00  0.00000000E+00
  0.00000000E+00  0.00000000E+00  0.00000000E+00
  0.00000000E+00  0.00000000E+00  0.00000000E+00
  0.00000000E+00  0.00000000E+00  0.00000000E+00
  0.00000000E+00  0.00000000E+00  0.00000000E+00
  0.00000000E+00  0.00000000E+00  0.00000000E+00
  0.00000000E+00  0.00000000E+00  0.00000000E+00
  0.00000000E+00  0.00000000E+00  0.00000000E+00
  0.00000000E+00  0.00000000E+00  0.00000000E+00
  0.00000000E+00  0.00000000E+00  0.00000000E+00
  0.00000000E+00  0.00000000E+00  0.00000000E+00
  0.00000000E+00  0.00000000E+00  0.00000000E+00
  0.00000000E+00  0.00000000E+00  0.00000000E+00
  0.00000000E+00  0.00000000E+00  0.00000000E+00
  0.00000000E+00  0.00000000E+00  0.00000000E+00
  0.00000000E+00  0.00000000E+00  0.00000000E+00
  0.00000000E+00  0.00000000E+00  0.00000000E+00
  0.00000000E+00  0.00000000E+00  0.00000000E+00
  0.00000000E+00  0.00000000E+00  0.00000000E+00
  0.00000000E+00  0.00000000E+00  0.00000000E+00
  0.00000000E+00  0.00000000E+00  0.00000000E+00
  0.00000000E+00  0.00000000E+00  0.00000000E+00
  0.00000000E+00  0.00000000E+00  0.00000000E+00
  0.00000000E+00  0.00000000E+00  0.00000000E+00
  0.00000000E+00  0.00000000E+00  0.00000000E+00
  0.00000000E+00  0.00000000E+00  0.00000000E+00
  0.00000000E+00  0.00000000E+00  0.00000000E+00
  0.00000000E+00  0.00000000E+00  0.00000000E+00
  0.00000000E+00  0.00000000E+00  0.00000000E+00
  0.00000000E+00  0.00000000E+00  0.00000000E+00
  0.00000000E+00  0.00000000E+00  0.00000000E+00
  0.00000000E+00  0.00000000E+00  0.00000000E+00
  0.00000000E+00  0.00000000E+00  0.00000000E+00
  0.00000000E+00  0.00000000E+00  0.00000000E+00
  0.00000000E+00  0.00000000E+00  0.00000000E+00
  0.00000000E+00  0.00000000E+00  0.00000000E+00
  0.00000000E+00  0.00000000E+00  0.00000000E+00
  0.00000000E+00  0.00000000E+00  0.00000000E+00
  0.00000000E+00  0.00000000E+00  0.00000000E+00
  0.00000000E+00  0.00000000E+00  0.00000000E+00
  0.00000000E+00  0.00000000E+00  0.00000000E+00
  0.00000000E+00  0.00000000E+00  0.00000000E+00
  0.00000000E+00  0.00000000E+00  0.00000000E+00
  0.00000000E+00  0.00000000E+00  0.00000000E+00
  0.00000000E+00  0.00000000E+00  0.00000000E+00
  0.00000000E+00  0.00000000E+00  0.00000000E+00
  0.00000000E+00  0.00000000E+00  0.00000000E+00
  0.00000000E+00  0.00000000E+00  0.00000000E+00
  0.00000000E+00  0.00000000E+00  0.00000000E+00
  0.00000000E+00  0.00000000E+00  0.00000000E+00
  0.00000000E+00  0.00000000E+00  0.00000000E+00
  0.00000000E+00  0.00000000E+00  0.00000000E+00
  0.00000000E+00  0.00000000E+00  0.00000000E+00
  0.00000000E+00  0.00000000E+00  0.00000000E+00
  0.00000000E+00  0.00000000E+00  0.00000000E+00
  0.00000000E+00  0.00000000E+00  0.00000000E+00
  0.00000000E+00  0.00000000E+00  0.00000000E+00
  0.00000000E+00  0.00000000E+00  0.00000000E+00
  0.00000000E+00  0.00000000E+00  0.00000000E+00
  0.00000000E+00  0.00000000E+00  0.00000000E+00
  0.00000000E+00  0.00000000E+00  0.00000000E+00
  0.00000000E+00  0.00000000E+00  0.00000000E+00
  0.00000000E+00  0.00000000E+00  0.00000000E+00
  0.00000000E+00  0.00000000E+00  0.00000000E+00
  0.00000000E+00  0.00000000E+00  0.00000000E+00
  0.00000000E+00  0.00000000E+00  0.00000000E+00
  0.00000000E+00  0.00000000E+00  0.00000000E+00
  0.00000000E+00  0.00000000E+00  0.00000000E+00
  0.00000000E+00  0.00000000E+00  0.00000000E+00
  0.00000000E+00  0.00000000E+00  0.00000000E+00
  0.00000000E+00  0.00000000E+00  0.00000000E+00
  0.00000000E+00  0.00000000E+00  0.00000000E+00
  0.00000000E+00  0.00000000E+00  0.00000000E+00
  0.00000000E+00  0.00000000E+00  0.00000000E+00
  0.00000000E+00  0.00000000E+00  0.00000000E+00
  0.00000000E+00  0.00000000E+00  0.00000000E+00
  0.00000000E+00  0.00000000E+00  0.00000000E+00
  0.00000000E+00  0.00000000E+00  0.00000000E+00
  0.00000000E+00  0.00000000E+00  0.00000000E+00
  0.00000000E+00  0.00000000E+00  0.00000000E+00
  0.00000000E+00  0.00000000E+00  0.00000000E+00
  0.00000000E+00  0.00000000E+00  0.00000000E+00
  0.00000000E+00  0.00000000E+00  0.00000000E+00
  0.00000000E+00  0.00000000E+00  0.00000000E+00
  0.00000000E+00  0.00000000E+00  0.00000000E+00
  0.00000000E+00  0.00000000E+00  0.00000000E+00
  0.00000000E+00  0.00000000E+00  0.00000000E+00
  0.00000000E+00  0.00000000E+00  0.00000000E+00
  0.00000000E+00  0.00000000E+00  0.00000000E+00
  0.00000000E+00  0.00000000E+00  0.00000000E+00
  0.00000000E+00  0.00000000E+00  0.00000000E+00
  0.00000000E+00  0.00000000E+00  0.00000000E+00
  0.00000000E+00  0.00000000E+00  0.00000000E+00
  0.00000000E+00  0.00000000E+00  0.00000000E+00
  0.00000000E+00  0.00000000E+00  0.00000000E+00
  0.00000000E+00  0.00000000E+00  0.00000000E+00
  0.00000000E+00  0.00000000E+00  0.00000000E+00
  0.00000000E+00  0.00000000E+00  0.00000000E+00
  0.00000000E+00  0.00000000E+00  0.00000000E+00
  0.00000000E+00  0.00000000E+00  0.00000000E+00
  0.00000000E+00  0.00000000E+00  0.00000000E+00
  0.00000000E+00  0.00000000E+00  0.00000000E+00
  0.00000000E+00  0.00000000E+00  0.00000000E+00
  0.00000000E+00  0.00000000E+00  0.00000000E+00
  0.00000000E+00  0.00000000E+00  0.00000000E+00
  0.00000000E+00  0.00000000E+00  0.00000000E+00
  0.00000000E+00  0.00000000E+00  0.00000000E+00
  0.00000000E+00  0.00000000E+00  0.00000000E+00
  0.00000000E+00  0.00000000E+00  0.00000000E+00
  0.00000000E+00  0.00000000E+00  0.00000000E+00
  0.00000000E+00  0.00000000E+00  0.00000000E+00
  0.00000000E+00  0.00000000E+00  0.00000000E+00
  0.00000000E+00  0.00000000E+00  0.00000000E+00
  0.00000000E+00  0.00000000E+00  0.00000000E+00
  0.00000000E+00  0.00000000E+00  0.00000000E+00
  0.00000000E+00  0.00000000E+00  0.00000000E+00
  0.00000000E+00  0.00000000E+00  0.00000000E+00
  0.00000000E+00  0.00000000E+00  0.00000000E+00
  0.00000000E+00  0.00000000E+00  0.00000000E+00
  0.00000000E+00  0.00000000E+00  0.00000000E+00
  0.00000000E+00  0.00000000E+00  0.00000000E+00
  0.00000000E+00  0.00000000E+00  0.00000000E+00
  0.00000000E+00  0.00000000E+00  0.00000000E+00
  0.00000000E+00  0.00000000E+00  0.00000000E+00
  0.00000000E+00  0.00000000E+00  0.00000000E+00
  0.00000000E+00  0.00000000E+00  0.00000000E+00
  0.00000000E+00  0.00000000E+00  0.00000000E+00
  0.00000000E+00  0.00000000E+00  0.00000000E+00
  0.00000000E+00  0.00000000E+00  0.00000000E+00
  0.00000000E+00  0.00000000E+00  0.00000000E+00
  0.00000000E+00  0.00000000E+00  0.00000000E+00
  0.00000000E+00  0.00000000E+00  0.00000000E+00
  0.00000000E+00  0.00000000E+00  0.00000000E+00
  0.00000000E+00  0.00000000E+00  0.00000000E+00
  0.00000000E+00  0.00000000E+00  0.00000000E+00
  0.00000000E+00  0.00000000E+00  0.00000000E+00
  0.00000000E+00  0.00000000E+00  0.00000000E+00
  0.00000000E+00  0.00000000E+00  0.00000000E+00
  0.00000000E+00  0.00000000E+00  0.00000000E+00
  0.00000000E+00  0.00000000E+00  0.00000000E+00
  0.00000000E+00  0.00000000E+00  0.00000000E+00
  0.00000000E+00  0.00000000E+00  0.00000000E+00
  0.00000000E+00  0.00000000E+00  0.00000000E+00
  0.00000000E+00  0.00000000E+00  0.00000000E+00
  0.00000000E+00  0.00000000E+00  0.00000000E+00
  0.00000000E+00  0.00000000E+00  0.00000000E+00
  0.00000000E+00  0.00000000E+00  0.00000000E+00
  0.00000000E+00  0.00000000E+00  0.00000000E+00
  0.00000000E+00  0.00000000E+00  0.00000000E+00
  0.00000000E+00  0.00000000E+00  0.00000000E+00
  0.00000000E+00  0.00000000E+00  0.00000000E+00
  0.00000000E+00  0.00000000E+00  0.00000000E+00
  0.00000000E+00  0.00000000E+00  0.00000000E+00
  0.00000000E+00  0.00000000E+00  0.00000000E+00
  0.00000000E+00  0.00000000E+00  0.00000000E+00
  0.00000000E+00  0.00000000E+00  0.00000000E+00
  0.00000000E+00  0.00000000E+00  0.00000000E+00
  0.00000000E+00  0.00000000E+00  0.00000000E+00
