FeNiCoCrMn_SQSbcc160_33_Fe28            
   2.80000000000000     
    -0.4965324521746095    2.5865647029066334   -0.5024250709295485
    -2.4764308747650463   -0.5113889026591074    2.5352677746987173
     5.9375190954686605    2.0756693951000211    6.0847335547347701
   Fe   Ni   Co   Cr   Mn
    28    33    33    33    33
Direct
  0.2958239110977451  0.8109769452873584  0.1074072865623765
  0.7818095728435641  0.8096077492900307  0.4811783292049858
  0.2727648515159657  0.8066127141193975  0.3548748173249968
  0.4000985795855759  0.8120056735031488  0.4495650440339301
  0.6501555261715523  0.7985954374096930  0.6402222879867518
  0.1564981089766898  0.8099625482656605  0.5134905658797290
  0.1441954216522364  0.7829492584545743  0.7606361724752453
  0.5602338601639754  0.6243603475168059  0.2117647915317580
  0.6842603010228870  0.6085401081495750  0.5560394627008313
  0.0536683578969955  0.6066285260313102  0.3363795943164327
  0.2941676787236807  0.5878371767918429  0.7761941043325484
  0.5788716997392857  0.3973662304548575  0.1277024483550104
  0.6920425198023514  0.4137240999310660  0.2216219694262973
  0.4577543123680379  0.4149216150608174  0.2867469435223120
  0.2107474081556599  0.4131990795621809  0.3502566192839003
  0.3290335163551132  0.4091533523635802  0.4451333698112895
  0.8248698582433265  0.3879098116522517  0.8169495980403721
  0.4477336957317934  0.3885491982975998  0.7862386255891372
  0.7432686442016320  0.2108880264656842  0.1457493721107967
  0.8423734461781928  0.2041706432802765  0.4893334733829567
  0.2370494803887684  0.2141258905778509  0.2658816304798631
  0.7344457599824019  0.1859027833923435  0.8932022605525975
  0.8437517696364943  0.2036197569423781  0.9887667050974582
  0.6489835903980418  0.0026491008754444  0.2211161296577558
  0.6289435450127595  0.0082182972746410  0.4697839043098453
  0.1376132298139339  0.0108406838509185  0.3465776792471323
  0.3762829601468630  0.0094705252761380  0.5329307417492275
  0.7295825281033596 -0.0119493699818991  0.8113751586198700
  0.8705617744292886  0.7844806287858264  0.0668455236693028
  0.6622454588382487  0.8189822680085130  0.1410610272514692
  0.8032586713294806  0.8114123133604372  0.2328307877902892
  0.9121299084861156  0.8136653608243170  0.3284035634547295
  0.2794010791401253  0.7835026008964905  0.8531631360128276
  0.0387599418049664  0.7948317372487795  0.9214211819291758
  0.8028264017827786  0.6171893868389876  0.3981730780227967
  0.5490312466077647  0.6125445106378858  0.4646208239289490
  0.1791939176982585  0.5848701225888080  0.6785399802266744
  0.1750425873720850  0.5844844325372168  0.9287790461401391
  0.9569139821924810  0.4083869196918360  0.4105224027065010
  0.1997837732261782  0.4070164750240571  0.0993939974363566
  0.3488642637398173  0.4100975226097122  0.1928302040521956
  0.0913664863099653  0.4109144796291800  0.2561594177788167
  0.4654997129342243  0.4130187823054078  0.5359757381663161
  0.7100548427770111  0.4100157437664176  0.9758918338857049
  0.2942571515406459  0.3704425206072793  0.9367445724225195
  0.6048053113301010  0.2029935274726618  0.0547751695049134
  0.8448549894448422  0.2174297484588976  0.2412782313428167
  0.4898157092895774  0.1973810281723249  0.2055390358065074
  0.9747245435763796  0.1983631608867161  0.5817924591435490
  0.0951652535640365  0.2296312624251712  0.1767216798644794
  0.2363749175226859  0.2129193897262880  0.5213379255850903
  0.3465517016631715  0.1983925930908692  0.6162530275456134
  0.7559000062671707  0.0176822983499051  0.3183619499729995
 -0.0372764689423953 -0.0123473616512889 -0.0051330862035875
  0.1047970778027756 -0.0137274605118174  0.0863460430958843
  0.4891180029327327  0.0101408003588117  0.3759620153342279
  0.6208382239881974 -0.0142074063935057  0.7174134538531148
  0.8448797093104817 -0.0344300717127057  0.9021283011511082
 -0.0015336245040181  0.0114939834297054  0.5074947297851294
  0.1359494202947059 -0.0055480407632229  0.5983939483406668
  0.4902098185923939 -0.0069441780631467  0.8795695271436264
  0.1493992556801365  0.8129324571675947  0.0174443179487202
  0.7766001737999149  0.7868218289063195  0.7311970732820797
  0.0384954276646105  0.8073615246183861  0.4223474318184494
  0.7464668115228120  0.7812168390630256  0.9696593564344663
  0.6631665463353458  0.5781523747411768  0.0475861682670161
  0.9304774440525886  0.6019395024202669  0.2400057537553416
  0.9365261228830539  0.6127760501696182  0.4929127499093442
  0.0627571450274162  0.6152337882769963  0.0915560569875580
  0.1883484933273215  0.6027525699488582  0.1820878529072656
  0.7966814209929597  0.5933421868834067  0.6494293701730406
  0.9259752899603734  0.5877938046937956  0.7412427694512101
  0.1844447264677605  0.6081332845292557  0.4305359172893092
  0.2887731356190443  0.6048973209406674  0.5251375284487390
  0.4374496547011152  0.5935894911911663  0.6152073797804984
  0.6738876730598963  0.5855394820068363  0.8035543736325753
  0.8439983479139159  0.4077968196913810  0.0705671964291807
  0.9469166827711052  0.4234772081863671  0.1649239966775603
  0.5785885598505758  0.3913832094747558  0.6309992114591522
  0.6970875725286063  0.3888117569858467  0.7243890281340366
  0.9495477378924256  0.3858115884999798  0.9091254967453072
  0.1814600717960244  0.3846735340081973  0.8425366186655612
  0.7374993304368979  0.1974925592752487  0.3942358774964944
  0.4854687604334069  0.2134232947018833  0.4575571194358714
  0.5989415932248937  0.2058519580008997  0.5518339738177247
  0.7131388188417193  0.1868510270196251  0.6462945935049925
  0.0635565010922752  0.1716456872112753  0.9241647502315780
  0.8968289025732890  0.0179541658957127  0.1619450791422040
  0.5102381449249322  0.0179241561367093  0.1331589461997736
  0.8928284534243137  0.0077211774480863  0.4106042775245473
  0.2259965218917394  0.0128033043998451  0.1836749129848828
  0.4859567014374691 -0.0086611082334710  0.6253474794271530
  0.2491578805594567 -0.0068537570274359  0.6929834985555133
  0.2514465896473919  0.0075897322950438  0.9494135194168459
  0.3951825875801813  0.8203395701470946  0.1980798182378050
  0.5316842884956001  0.8091838165675445  0.2979038436022655
  0.9025287389733561  0.8022339398408934  0.5747506552786676
  0.5267087015461952  0.8085565655486843  0.5440605997578706
  0.3921051279663043  0.7876678468467025  0.6985975993039916
  0.5227879758705621  0.7898914391397562  0.7889278581149890
  0.7794405688529302  0.6060155212312140  0.1420427475625196
  0.3030797711223971  0.6049930183289939  0.0270760301495209
  0.9363692597854180  0.6084548621393547  0.9965268652736241
  0.0466968901323552  0.5993579662332964  0.5870399332471723
  0.4241657360757754  0.5744377780349560  0.8671781577536896
  0.0339619400339630  0.5941707234984271  0.8378264461884360
  0.0700420311330016  0.4099500635516247  0.0027613532635484
  0.5800593998831441  0.4111964764379835  0.3817469045246864
  0.8282889126041719  0.4056024780172300  0.5670704383973449
  0.9466046775816477  0.3844191232849827  0.6577770986390485
  0.2015530634953960  0.4028336884750860  0.5992661950806467
  0.0705998696350319  0.3888407269858083  0.7502842032395477
  0.2081302639812787  0.1919348192372599  0.0172819860263457
  0.5917179863455142  0.2081703948164103  0.3033121737001169
  0.8529996442221828  0.1886147696800755  0.7391903080343820
  0.9702105415921816  0.1797940794266264  0.8287279764932610
  0.4754213045651591  0.1898945231691891  0.7095646765020283
  0.5863431984833725  0.1838852473874444  0.7996556936502772
  0.0902925795427226  0.1841635785434626  0.6753631378554156
  0.2159748904356249  0.1877595423553363  0.7688727988746389
  0.4936460054752156  0.1950549492557980  0.9523059520696370
  0.4049817308039611 -0.0147131867961815  0.0378075804384183
  0.7392090855596763 -0.0027823256886542  0.5664624233830436
  0.0173711181400178  0.0190913844964354  0.2564710786769870
  0.2520481668757476  0.0166422248958354  0.4409983235750982
  0.3608624678761348 -0.0141168888799786  0.7848962496396018
  0.1281846911426912 -0.0150163096931819  0.8492131468291451
  0.5375835023676024  0.7884925827987399  0.0435141686103884
  0.6575285118393263  0.8195435713112136  0.3870127105503358
  0.0190559703776677  0.8006041858550164  0.1594986616650955
  0.1406600373613477  0.8112840033786555  0.2581431048529990
  0.8928645184275646  0.7896006635034850  0.8275054393164989
  0.2835505987254708  0.7899128015424902  0.6066564124329881
  0.6068847192692332  0.7744944376131472  0.8805272047381071
  0.0221517419594368  0.7924270206480163  0.6680925993315537
  0.3746395288905284  0.7980309246134070  0.9498691515101685
  0.4340499799852035  0.6030149278834496  0.1183640030322670
  0.6878943765001987  0.6169549141599406  0.3025242683172520
  0.3108551180157513  0.6172138474795588  0.2738115502698509
  0.4343030005103952  0.6065559975629389  0.3696478112964010
  0.5423511601544808  0.5898000107051313  0.7103945829074347
  0.8038055390438713  0.5906914720067864  0.9011445046172886
  0.5148852778825291  0.5827106837794955  0.9586938490250564
  0.4332879589398225  0.3832495661819188  0.0314596709791003
  0.8185544675894285  0.4022917684773396  0.3169334167978271
  0.7110193458276284  0.4155931317055407  0.4719975358172460
  0.0695852087440638  0.4027423479511069  0.5078583591282217
  0.3173104411293541  0.3778297182461323  0.6918733900285418
  0.5741118206425853  0.3840638012030112  0.8811844012004377
  0.9858152841215455  0.2060993689008312  0.0802857285655273
  0.9923210313110824  0.2118754123170202  0.3323234867221668
  0.3301515727001792  0.1913306208249910  0.1136426361381024
  0.3589711277988657  0.2178061033992895  0.3625983693703991
  0.1040360764008511  0.2061345662540925  0.4293950531762309
  0.3307885335582209  0.1888391198344545  0.8641413793068462
  0.7563400509992478 -0.0000786940806896  0.0707115396237152
  0.3874292656352531  0.0095189657367783  0.2784266829848534
  0.8744769750119062 -0.0021189246124837  0.6557391420775025
  0.6196641542089427 -0.0014153211726718  0.9728521509259908
 -0.0056765303244374 -0.0157101107833151  0.7537672936595354
 
  0.00000000E+00  0.00000000E+00  0.00000000E+00
  0.00000000E+00  0.00000000E+00  0.00000000E+00
  0.00000000E+00  0.00000000E+00  0.00000000E+00
  0.00000000E+00  0.00000000E+00  0.00000000E+00
  0.00000000E+00  0.00000000E+00  0.00000000E+00
  0.00000000E+00  0.00000000E+00  0.00000000E+00
  0.00000000E+00  0.00000000E+00  0.00000000E+00
  0.00000000E+00  0.00000000E+00  0.00000000E+00
  0.00000000E+00  0.00000000E+00  0.00000000E+00
  0.00000000E+00  0.00000000E+00  0.00000000E+00
  0.00000000E+00  0.00000000E+00  0.00000000E+00
  0.00000000E+00  0.00000000E+00  0.00000000E+00
  0.00000000E+00  0.00000000E+00  0.00000000E+00
  0.00000000E+00  0.00000000E+00  0.00000000E+00
  0.00000000E+00  0.00000000E+00  0.00000000E+00
  0.00000000E+00  0.00000000E+00  0.00000000E+00
  0.00000000E+00  0.00000000E+00  0.00000000E+00
  0.00000000E+00  0.00000000E+00  0.00000000E+00
  0.00000000E+00  0.00000000E+00  0.00000000E+00
  0.00000000E+00  0.00000000E+00  0.00000000E+00
  0.00000000E+00  0.00000000E+00  0.00000000E+00
  0.00000000E+00  0.00000000E+00  0.00000000E+00
  0.00000000E+00  0.00000000E+00  0.00000000E+00
  0.00000000E+00  0.00000000E+00  0.00000000E+00
  0.00000000E+00  0.00000000E+00  0.00000000E+00
  0.00000000E+00  0.00000000E+00  0.00000000E+00
  0.00000000E+00  0.00000000E+00  0.00000000E+00
  0.00000000E+00  0.00000000E+00  0.00000000E+00
  0.00000000E+00  0.00000000E+00  0.00000000E+00
  0.00000000E+00  0.00000000E+00  0.00000000E+00
  0.00000000E+00  0.00000000E+00  0.00000000E+00
  0.00000000E+00  0.00000000E+00  0.00000000E+00
  0.00000000E+00  0.00000000E+00  0.00000000E+00
  0.00000000E+00  0.00000000E+00  0.00000000E+00
  0.00000000E+00  0.00000000E+00  0.00000000E+00
  0.00000000E+00  0.00000000E+00  0.00000000E+00
  0.00000000E+00  0.00000000E+00  0.00000000E+00
  0.00000000E+00  0.00000000E+00  0.00000000E+00
  0.00000000E+00  0.00000000E+00  0.00000000E+00
  0.00000000E+00  0.00000000E+00  0.00000000E+00
  0.00000000E+00  0.00000000E+00  0.00000000E+00
  0.00000000E+00  0.00000000E+00  0.00000000E+00
  0.00000000E+00  0.00000000E+00  0.00000000E+00
  0.00000000E+00  0.00000000E+00  0.00000000E+00
  0.00000000E+00  0.00000000E+00  0.00000000E+00
  0.00000000E+00  0.00000000E+00  0.00000000E+00
  0.00000000E+00  0.00000000E+00  0.00000000E+00
  0.00000000E+00  0.00000000E+00  0.00000000E+00
  0.00000000E+00  0.00000000E+00  0.00000000E+00
  0.00000000E+00  0.00000000E+00  0.00000000E+00
  0.00000000E+00  0.00000000E+00  0.00000000E+00
  0.00000000E+00  0.00000000E+00  0.00000000E+00
  0.00000000E+00  0.00000000E+00  0.00000000E+00
  0.00000000E+00  0.00000000E+00  0.00000000E+00
  0.00000000E+00  0.00000000E+00  0.00000000E+00
  0.00000000E+00  0.00000000E+00  0.00000000E+00
  0.00000000E+00  0.00000000E+00  0.00000000E+00
  0.00000000E+00  0.00000000E+00  0.00000000E+00
  0.00000000E+00  0.00000000E+00  0.00000000E+00
  0.00000000E+00  0.00000000E+00  0.00000000E+00
  0.00000000E+00  0.00000000E+00  0.00000000E+00
  0.00000000E+00  0.00000000E+00  0.00000000E+00
  0.00000000E+00  0.00000000E+00  0.00000000E+00
  0.00000000E+00  0.00000000E+00  0.00000000E+00
  0.00000000E+00  0.00000000E+00  0.00000000E+00
  0.00000000E+00  0.00000000E+00  0.00000000E+00
  0.00000000E+00  0.00000000E+00  0.00000000E+00
  0.00000000E+00  0.00000000E+00  0.00000000E+00
  0.00000000E+00  0.00000000E+00  0.00000000E+00
  0.00000000E+00  0.00000000E+00  0.00000000E+00
  0.00000000E+00  0.00000000E+00  0.00000000E+00
  0.00000000E+00  0.00000000E+00  0.00000000E+00
  0.00000000E+00  0.00000000E+00  0.00000000E+00
  0.00000000E+00  0.00000000E+00  0.00000000E+00
  0.00000000E+00  0.00000000E+00  0.00000000E+00
  0.00000000E+00  0.00000000E+00  0.00000000E+00
  0.00000000E+00  0.00000000E+00  0.00000000E+00
  0.00000000E+00  0.00000000E+00  0.00000000E+00
  0.00000000E+00  0.00000000E+00  0.00000000E+00
  0.00000000E+00  0.00000000E+00  0.00000000E+00
  0.00000000E+00  0.00000000E+00  0.00000000E+00
  0.00000000E+00  0.00000000E+00  0.00000000E+00
  0.00000000E+00  0.00000000E+00  0.00000000E+00
  0.00000000E+00  0.00000000E+00  0.00000000E+00
  0.00000000E+00  0.00000000E+00  0.00000000E+00
  0.00000000E+00  0.00000000E+00  0.00000000E+00
  0.00000000E+00  0.00000000E+00  0.00000000E+00
  0.00000000E+00  0.00000000E+00  0.00000000E+00
  0.00000000E+00  0.00000000E+00  0.00000000E+00
  0.00000000E+00  0.00000000E+00  0.00000000E+00
  0.00000000E+00  0.00000000E+00  0.00000000E+00
  0.00000000E+00  0.00000000E+00  0.00000000E+00
  0.00000000E+00  0.00000000E+00  0.00000000E+00
  0.00000000E+00  0.00000000E+00  0.00000000E+00
  0.00000000E+00  0.00000000E+00  0.00000000E+00
  0.00000000E+00  0.00000000E+00  0.00000000E+00
  0.00000000E+00  0.00000000E+00  0.00000000E+00
  0.00000000E+00  0.00000000E+00  0.00000000E+00
  0.00000000E+00  0.00000000E+00  0.00000000E+00
  0.00000000E+00  0.00000000E+00  0.00000000E+00
  0.00000000E+00  0.00000000E+00  0.00000000E+00
  0.00000000E+00  0.00000000E+00  0.00000000E+00
  0.00000000E+00  0.00000000E+00  0.00000000E+00
  0.00000000E+00  0.00000000E+00  0.00000000E+00
  0.00000000E+00  0.00000000E+00  0.00000000E+00
  0.00000000E+00  0.00000000E+00  0.00000000E+00
  0.00000000E+00  0.00000000E+00  0.00000000E+00
  0.00000000E+00  0.00000000E+00  0.00000000E+00
  0.00000000E+00  0.00000000E+00  0.00000000E+00
  0.00000000E+00  0.00000000E+00  0.00000000E+00
  0.00000000E+00  0.00000000E+00  0.00000000E+00
  0.00000000E+00  0.00000000E+00  0.00000000E+00
  0.00000000E+00  0.00000000E+00  0.00000000E+00
  0.00000000E+00  0.00000000E+00  0.00000000E+00
  0.00000000E+00  0.00000000E+00  0.00000000E+00
  0.00000000E+00  0.00000000E+00  0.00000000E+00
  0.00000000E+00  0.00000000E+00  0.00000000E+00
  0.00000000E+00  0.00000000E+00  0.00000000E+00
  0.00000000E+00  0.00000000E+00  0.00000000E+00
  0.00000000E+00  0.00000000E+00  0.00000000E+00
  0.00000000E+00  0.00000000E+00  0.00000000E+00
  0.00000000E+00  0.00000000E+00  0.00000000E+00
  0.00000000E+00  0.00000000E+00  0.00000000E+00
  0.00000000E+00  0.00000000E+00  0.00000000E+00
  0.00000000E+00  0.00000000E+00  0.00000000E+00
  0.00000000E+00  0.00000000E+00  0.00000000E+00
  0.00000000E+00  0.00000000E+00  0.00000000E+00
  0.00000000E+00  0.00000000E+00  0.00000000E+00
  0.00000000E+00  0.00000000E+00  0.00000000E+00
  0.00000000E+00  0.00000000E+00  0.00000000E+00
  0.00000000E+00  0.00000000E+00  0.00000000E+00
  0.00000000E+00  0.00000000E+00  0.00000000E+00
  0.00000000E+00  0.00000000E+00  0.00000000E+00
  0.00000000E+00  0.00000000E+00  0.00000000E+00
  0.00000000E+00  0.00000000E+00  0.00000000E+00
  0.00000000E+00  0.00000000E+00  0.00000000E+00
  0.00000000E+00  0.00000000E+00  0.00000000E+00
  0.00000000E+00  0.00000000E+00  0.00000000E+00
  0.00000000E+00  0.00000000E+00  0.00000000E+00
  0.00000000E+00  0.00000000E+00  0.00000000E+00
  0.00000000E+00  0.00000000E+00  0.00000000E+00
  0.00000000E+00  0.00000000E+00  0.00000000E+00
  0.00000000E+00  0.00000000E+00  0.00000000E+00
  0.00000000E+00  0.00000000E+00  0.00000000E+00
  0.00000000E+00  0.00000000E+00  0.00000000E+00
  0.00000000E+00  0.00000000E+00  0.00000000E+00
  0.00000000E+00  0.00000000E+00  0.00000000E+00
  0.00000000E+00  0.00000000E+00  0.00000000E+00
  0.00000000E+00  0.00000000E+00  0.00000000E+00
  0.00000000E+00  0.00000000E+00  0.00000000E+00
  0.00000000E+00  0.00000000E+00  0.00000000E+00
  0.00000000E+00  0.00000000E+00  0.00000000E+00
  0.00000000E+00  0.00000000E+00  0.00000000E+00
  0.00000000E+00  0.00000000E+00  0.00000000E+00
  0.00000000E+00  0.00000000E+00  0.00000000E+00
  0.00000000E+00  0.00000000E+00  0.00000000E+00
  0.00000000E+00  0.00000000E+00  0.00000000E+00
  0.00000000E+00  0.00000000E+00  0.00000000E+00
  0.00000000E+00  0.00000000E+00  0.00000000E+00
  0.00000000E+00  0.00000000E+00  0.00000000E+00
