FeNiCoCrMn_SQSfcc160_33_Ni28            
   3.50000000000000     
     2.0154459943535197    1.5115844939481990   -1.5115844939481990
     2.0154459943535197   -0.5038614985883799    2.5193075049775273
     0.0000000000000000   -4.0308919887070394   -2.0154459943535197
   Fe   Ni   Co   Cr   Mn
    33    28    33    33    33
Direct
  0.9500000000000028  0.0499999999999972  0.3500000000000014
  0.8999999999999986  0.1000000000000014  0.2000000000000028
  0.8999999999999986  0.1000000000000014  0.7000000000000028
  0.6124999999999972  0.1375000000000028  0.4624999999999986
  0.1875000000000000  0.0625000000000000  0.4375000000000000
  0.2749999999999986  0.2250000000000014  0.0750000000000028
  0.6124999999999972  0.1375000000000028  0.9624999999999986
  0.3750000000000000  0.1250000000000000  0.8750000000000000
  0.3250000000000028  0.1749999999999972  0.7250000000000014
  0.7000000000000028  0.2999999999999972  0.6000000000000014
  0.0874999999999986  0.1625000000000014  0.6375000000000028
  0.4624999999999986  0.2875000000000014  0.5125000000000028
  0.7374999999999972  0.5125000000000028  0.0874999999999986
  0.6499999999999986  0.3500000000000014  0.9500000000000028
  0.7875000000000014  0.4624999999999986  0.7374999999999972
  0.7374999999999972  0.5125000000000028  0.5874999999999986
  0.9249999999999972  0.5750000000000028  0.5249999999999986
  0.0750000000000028  0.4249999999999972  0.4750000000000014
  0.4500000000000028  0.5499999999999972  0.3500000000000014
  0.7749999999999986  0.7250000000000014  0.0750000000000028
  0.9624999999999986  0.7875000000000014  0.0125000000000028
  0.3500000000000014  0.6499999999999986  0.5499999999999972
  0.5375000000000014  0.7124999999999986  0.4874999999999972
  0.2999999999999972  0.7000000000000028  0.3999999999999986
  0.4375000000000000  0.8125000000000000  0.1875000000000000
  0.6250000000000000  0.8750000000000000  0.1250000000000000
  0.8125000000000000  0.9375000000000000  0.0625000000000000
  0.0125000000000028  0.7374999999999972  0.1625000000000014
  0.1124999999999972  0.6375000000000028  0.9624999999999986
  0.0625000000000000  0.6875000000000000  0.8125000000000000
  0.2000000000000028  0.7999999999999972  0.6000000000000014
  0.3875000000000028  0.8624999999999972  0.5375000000000014
  0.0499999999999972  0.9500000000000028  0.6499999999999986
  0.6625000000000014  0.0874999999999986  0.1124999999999972
  0.4249999999999972  0.0750000000000028  0.0249999999999986
  0.9500000000000028  0.0499999999999972  0.8500000000000014
  0.7124999999999986  0.0375000000000014  0.7625000000000028
  0.6625000000000014  0.0874999999999986  0.6124999999999972
  0.8500000000000014  0.1499999999999986  0.5499999999999972
  0.2374999999999972  0.0125000000000028  0.5874999999999986
  0.3750000000000000  0.1250000000000000  0.3750000000000000
  0.1375000000000028  0.1124999999999972  0.2875000000000014
  0.8875000000000028  0.3624999999999972  0.0375000000000014
  0.8875000000000028  0.3624999999999972  0.5375000000000014
  0.3125000000000000  0.4375000000000000  0.0625000000000000
  0.5000000000000000  0.5000000000000000  0.0000000000000000
  0.2250000000000014  0.2749999999999986  0.9249999999999972
  0.9750000000000014  0.5249999999999986  0.6749999999999972
  0.8750000000000000  0.6250000000000000  0.3750000000000000
  0.6375000000000028  0.6124999999999972  0.2875000000000014
  0.8250000000000028  0.6749999999999972  0.2250000000000014
  0.2124999999999986  0.5375000000000014  0.2625000000000028
  0.6875000000000000  0.5625000000000000  0.9375000000000000
  0.0249999999999986  0.4750000000000014  0.8250000000000028
  0.7250000000000014  0.7749999999999986  0.4249999999999972
  0.7250000000000014  0.7749999999999986  0.9249999999999972
  0.8624999999999972  0.8875000000000028  0.7124999999999986
  0.5750000000000028  0.9249999999999972  0.4750000000000014
  0.1000000000000014  0.8999999999999986  0.2999999999999972
  0.5750000000000028  0.9249999999999972  0.9750000000000014
  0.7625000000000028  0.9874999999999972  0.9125000000000014
  0.4750000000000014  0.0249999999999986  0.1749999999999972
  0.8500000000000014  0.1499999999999986  0.0499999999999972
  0.4750000000000014  0.0249999999999986  0.6749999999999972
  0.7999999999999972  0.2000000000000028  0.3999999999999986
  0.5125000000000028  0.2374999999999972  0.1625000000000014
  0.9874999999999972  0.2625000000000028  0.8374999999999986
  0.7500000000000000  0.2500000000000000  0.7500000000000000
  0.2749999999999986  0.2250000000000014  0.5750000000000028
  0.8374999999999986  0.4125000000000014  0.3875000000000028
  0.2250000000000014  0.2749999999999986  0.4249999999999972
  0.6000000000000014  0.3999999999999986  0.2999999999999972
  0.1749999999999972  0.3250000000000028  0.2749999999999986
  0.5499999999999972  0.4500000000000028  0.1499999999999986
  0.1250000000000000  0.3750000000000000  0.1250000000000000
  0.4125000000000014  0.3374999999999986  0.8624999999999972
  0.6000000000000014  0.3999999999999986  0.7999999999999972
  0.1749999999999972  0.3250000000000028  0.7749999999999986
  0.3624999999999972  0.3875000000000028  0.7124999999999986
  0.5499999999999972  0.4500000000000028  0.6499999999999986
  0.3999999999999986  0.6000000000000014  0.2000000000000028
  0.1625000000000014  0.5874999999999986  0.1124999999999972
  0.3500000000000014  0.6499999999999986  0.0499999999999972
  0.0750000000000028  0.4249999999999972  0.9750000000000014
  0.1124999999999972  0.6375000000000028  0.4624999999999986
  0.4874999999999972  0.7625000000000028  0.3374999999999986
  0.8624999999999972  0.8875000000000028  0.2124999999999986
  0.0625000000000000  0.6875000000000000  0.3125000000000000
  0.2500000000000000  0.7500000000000000  0.2500000000000000
  0.2999999999999972  0.7000000000000028  0.8999999999999986
  0.6250000000000000  0.8750000000000000  0.6250000000000000
  0.1499999999999986  0.8500000000000014  0.4500000000000028
  0.0499999999999972  0.9500000000000028  0.1499999999999986
  0.5249999999999986  0.9750000000000014  0.8250000000000028
  0.2374999999999972  0.0125000000000028  0.0874999999999986
  0.9874999999999972  0.2625000000000028  0.3374999999999986
  0.7500000000000000  0.2500000000000000  0.2500000000000000
  0.9375000000000000  0.3125000000000000  0.1875000000000000
  0.7000000000000028  0.2999999999999972  0.1000000000000014
  0.4624999999999986  0.2875000000000014  0.0125000000000028
  0.7999999999999972  0.2000000000000028  0.8999999999999986
  0.1875000000000000  0.0625000000000000  0.9375000000000000
  0.5625000000000000  0.1875000000000000  0.8125000000000000
  0.9375000000000000  0.3125000000000000  0.6875000000000000
  0.0375000000000014  0.2124999999999986  0.4874999999999972
  0.4125000000000014  0.3374999999999986  0.3624999999999972
  0.9750000000000014  0.5249999999999986  0.1749999999999972
  0.3624999999999972  0.3875000000000028  0.2124999999999986
  0.9249999999999972  0.5750000000000028  0.0249999999999986
  0.1250000000000000  0.3750000000000000  0.6250000000000000
  0.3125000000000000  0.4375000000000000  0.5625000000000000
  0.2625000000000028  0.4874999999999972  0.4125000000000014
  0.4500000000000028  0.5499999999999972  0.8500000000000014
  0.8250000000000028  0.6749999999999972  0.7250000000000014
  0.2124999999999986  0.5375000000000014  0.7625000000000028
  0.3999999999999986  0.6000000000000014  0.7000000000000028
  0.1625000000000014  0.5874999999999986  0.6124999999999972
  0.6749999999999972  0.8250000000000028  0.2749999999999986
  0.3875000000000028  0.8624999999999972  0.0375000000000014
  0.5375000000000014  0.7124999999999986  0.9874999999999972
  0.9125000000000014  0.8374999999999986  0.8624999999999972
  0.8125000000000000  0.9375000000000000  0.5625000000000000
  0.0125000000000028  0.7374999999999972  0.6625000000000014
  0.3374999999999986  0.9125000000000014  0.3875000000000028
  0.2875000000000014  0.9624999999999986  0.2374999999999972
  0.1499999999999986  0.8500000000000014  0.9500000000000028
  0.3374999999999986  0.9125000000000014  0.8875000000000028
  0.7124999999999986  0.0375000000000014  0.2625000000000028
  0.0000000000000000  0.0000000000000000  0.0000000000000000
  0.4249999999999972  0.0750000000000028  0.5249999999999986
  0.0000000000000000  0.0000000000000000  0.5000000000000000
  0.5625000000000000  0.1875000000000000  0.3125000000000000
  0.3250000000000028  0.1749999999999972  0.2250000000000014
  0.0874999999999986  0.1625000000000014  0.1375000000000028
  0.1375000000000028  0.1124999999999972  0.7875000000000014
  0.5125000000000028  0.2374999999999972  0.6625000000000014
  0.6499999999999986  0.3500000000000014  0.4500000000000028
  0.7875000000000014  0.4624999999999986  0.2374999999999972
  0.8374999999999986  0.4125000000000014  0.8875000000000028
  0.0375000000000014  0.2124999999999986  0.9874999999999972
  0.5000000000000000  0.5000000000000000  0.5000000000000000
  0.6875000000000000  0.5625000000000000  0.4375000000000000
  0.0249999999999986  0.4750000000000014  0.3250000000000028
  0.5874999999999986  0.6625000000000014  0.1375000000000028
  0.8750000000000000  0.6250000000000000  0.8750000000000000
  0.2625000000000028  0.4874999999999972  0.9125000000000014
  0.6375000000000028  0.6124999999999972  0.7875000000000014
  0.5874999999999986  0.6625000000000014  0.6375000000000028
  0.7749999999999986  0.7250000000000014  0.5750000000000028
  0.9624999999999986  0.7875000000000014  0.5125000000000028
  0.9125000000000014  0.8374999999999986  0.3624999999999972
  0.2000000000000028  0.7999999999999972  0.1000000000000014
  0.4874999999999972  0.7625000000000028  0.8374999999999986
  0.6749999999999972  0.8250000000000028  0.7749999999999986
  0.2500000000000000  0.7500000000000000  0.7500000000000000
  0.4375000000000000  0.8125000000000000  0.6875000000000000
  0.7625000000000028  0.9874999999999972  0.4125000000000014
  0.5249999999999986  0.9750000000000014  0.3250000000000028
  0.1000000000000014  0.8999999999999986  0.7999999999999972
  0.2875000000000014  0.9624999999999986  0.7374999999999972
 
  0.00000000E+00  0.00000000E+00  0.00000000E+00
  0.00000000E+00  0.00000000E+00  0.00000000E+00
  0.00000000E+00  0.00000000E+00  0.00000000E+00
  0.00000000E+00  0.00000000E+00  0.00000000E+00
  0.00000000E+00  0.00000000E+00  0.00000000E+00
  0.00000000E+00  0.00000000E+00  0.00000000E+00
  0.00000000E+00  0.00000000E+00  0.00000000E+00
  0.00000000E+00  0.00000000E+00  0.00000000E+00
  0.00000000E+00  0.00000000E+00  0.00000000E+00
  0.00000000E+00  0.00000000E+00  0.00000000E+00
  0.00000000E+00  0.00000000E+00  0.00000000E+00
  0.00000000E+00  0.00000000E+00  0.00000000E+00
  0.00000000E+00  0.00000000E+00  0.00000000E+00
  0.00000000E+00  0.00000000E+00  0.00000000E+00
  0.00000000E+00  0.00000000E+00  0.00000000E+00
  0.00000000E+00  0.00000000E+00  0.00000000E+00
  0.00000000E+00  0.00000000E+00  0.00000000E+00
  0.00000000E+00  0.00000000E+00  0.00000000E+00
  0.00000000E+00  0.00000000E+00  0.00000000E+00
  0.00000000E+00  0.00000000E+00  0.00000000E+00
  0.00000000E+00  0.00000000E+00  0.00000000E+00
  0.00000000E+00  0.00000000E+00  0.00000000E+00
  0.00000000E+00  0.00000000E+00  0.00000000E+00
  0.00000000E+00  0.00000000E+00  0.00000000E+00
  0.00000000E+00  0.00000000E+00  0.00000000E+00
  0.00000000E+00  0.00000000E+00  0.00000000E+00
  0.00000000E+00  0.00000000E+00  0.00000000E+00
  0.00000000E+00  0.00000000E+00  0.00000000E+00
  0.00000000E+00  0.00000000E+00  0.00000000E+00
  0.00000000E+00  0.00000000E+00  0.00000000E+00
  0.00000000E+00  0.00000000E+00  0.00000000E+00
  0.00000000E+00  0.00000000E+00  0.00000000E+00
  0.00000000E+00  0.00000000E+00  0.00000000E+00
  0.00000000E+00  0.00000000E+00  0.00000000E+00
  0.00000000E+00  0.00000000E+00  0.00000000E+00
  0.00000000E+00  0.00000000E+00  0.00000000E+00
  0.00000000E+00  0.00000000E+00  0.00000000E+00
  0.00000000E+00  0.00000000E+00  0.00000000E+00
  0.00000000E+00  0.00000000E+00  0.00000000E+00
  0.00000000E+00  0.00000000E+00  0.00000000E+00
  0.00000000E+00  0.00000000E+00  0.00000000E+00
  0.00000000E+00  0.00000000E+00  0.00000000E+00
  0.00000000E+00  0.00000000E+00  0.00000000E+00
  0.00000000E+00  0.00000000E+00  0.00000000E+00
  0.00000000E+00  0.00000000E+00  0.00000000E+00
  0.00000000E+00  0.00000000E+00  0.00000000E+00
  0.00000000E+00  0.00000000E+00  0.00000000E+00
  0.00000000E+00  0.00000000E+00  0.00000000E+00
  0.00000000E+00  0.00000000E+00  0.00000000E+00
  0.00000000E+00  0.00000000E+00  0.00000000E+00
  0.00000000E+00  0.00000000E+00  0.00000000E+00
  0.00000000E+00  0.00000000E+00  0.00000000E+00
  0.00000000E+00  0.00000000E+00  0.00000000E+00
  0.00000000E+00  0.00000000E+00  0.00000000E+00
  0.00000000E+00  0.00000000E+00  0.00000000E+00
  0.00000000E+00  0.00000000E+00  0.00000000E+00
  0.00000000E+00  0.00000000E+00  0.00000000E+00
  0.00000000E+00  0.00000000E+00  0.00000000E+00
  0.00000000E+00  0.00000000E+00  0.00000000E+00
  0.00000000E+00  0.00000000E+00  0.00000000E+00
  0.00000000E+00  0.00000000E+00  0.00000000E+00
  0.00000000E+00  0.00000000E+00  0.00000000E+00
  0.00000000E+00  0.00000000E+00  0.00000000E+00
  0.00000000E+00  0.00000000E+00  0.00000000E+00
  0.00000000E+00  0.00000000E+00  0.00000000E+00
  0.00000000E+00  0.00000000E+00  0.00000000E+00
  0.00000000E+00  0.00000000E+00  0.00000000E+00
  0.00000000E+00  0.00000000E+00  0.00000000E+00
  0.00000000E+00  0.00000000E+00  0.00000000E+00
  0.00000000E+00  0.00000000E+00  0.00000000E+00
  0.00000000E+00  0.00000000E+00  0.00000000E+00
  0.00000000E+00  0.00000000E+00  0.00000000E+00
  0.00000000E+00  0.00000000E+00  0.00000000E+00
  0.00000000E+00  0.00000000E+00  0.00000000E+00
  0.00000000E+00  0.00000000E+00  0.00000000E+00
  0.00000000E+00  0.00000000E+00  0.00000000E+00
  0.00000000E+00  0.00000000E+00  0.00000000E+00
  0.00000000E+00  0.00000000E+00  0.00000000E+00
  0.00000000E+00  0.00000000E+00  0.00000000E+00
  0.00000000E+00  0.00000000E+00  0.00000000E+00
  0.00000000E+00  0.00000000E+00  0.00000000E+00
  0.00000000E+00  0.00000000E+00  0.00000000E+00
  0.00000000E+00  0.00000000E+00  0.00000000E+00
  0.00000000E+00  0.00000000E+00  0.00000000E+00
  0.00000000E+00  0.00000000E+00  0.00000000E+00
  0.00000000E+00  0.00000000E+00  0.00000000E+00
  0.00000000E+00  0.00000000E+00  0.00000000E+00
  0.00000000E+00  0.00000000E+00  0.00000000E+00
  0.00000000E+00  0.00000000E+00  0.00000000E+00
  0.00000000E+00  0.00000000E+00  0.00000000E+00
  0.00000000E+00  0.00000000E+00  0.00000000E+00
  0.00000000E+00  0.00000000E+00  0.00000000E+00
  0.00000000E+00  0.00000000E+00  0.00000000E+00
  0.00000000E+00  0.00000000E+00  0.00000000E+00
  0.00000000E+00  0.00000000E+00  0.00000000E+00
  0.00000000E+00  0.00000000E+00  0.00000000E+00
  0.00000000E+00  0.00000000E+00  0.00000000E+00
  0.00000000E+00  0.00000000E+00  0.00000000E+00
  0.00000000E+00  0.00000000E+00  0.00000000E+00
  0.00000000E+00  0.00000000E+00  0.00000000E+00
  0.00000000E+00  0.00000000E+00  0.00000000E+00
  0.00000000E+00  0.00000000E+00  0.00000000E+00
  0.00000000E+00  0.00000000E+00  0.00000000E+00
  0.00000000E+00  0.00000000E+00  0.00000000E+00
  0.00000000E+00  0.00000000E+00  0.00000000E+00
  0.00000000E+00  0.00000000E+00  0.00000000E+00
  0.00000000E+00  0.00000000E+00  0.00000000E+00
  0.00000000E+00  0.00000000E+00  0.00000000E+00
  0.00000000E+00  0.00000000E+00  0.00000000E+00
  0.00000000E+00  0.00000000E+00  0.00000000E+00
  0.00000000E+00  0.00000000E+00  0.00000000E+00
  0.00000000E+00  0.00000000E+00  0.00000000E+00
  0.00000000E+00  0.00000000E+00  0.00000000E+00
  0.00000000E+00  0.00000000E+00  0.00000000E+00
  0.00000000E+00  0.00000000E+00  0.00000000E+00
  0.00000000E+00  0.00000000E+00  0.00000000E+00
  0.00000000E+00  0.00000000E+00  0.00000000E+00
  0.00000000E+00  0.00000000E+00  0.00000000E+00
  0.00000000E+00  0.00000000E+00  0.00000000E+00
  0.00000000E+00  0.00000000E+00  0.00000000E+00
  0.00000000E+00  0.00000000E+00  0.00000000E+00
  0.00000000E+00  0.00000000E+00  0.00000000E+00
  0.00000000E+00  0.00000000E+00  0.00000000E+00
  0.00000000E+00  0.00000000E+00  0.00000000E+00
  0.00000000E+00  0.00000000E+00  0.00000000E+00
  0.00000000E+00  0.00000000E+00  0.00000000E+00
  0.00000000E+00  0.00000000E+00  0.00000000E+00
  0.00000000E+00  0.00000000E+00  0.00000000E+00
  0.00000000E+00  0.00000000E+00  0.00000000E+00
  0.00000000E+00  0.00000000E+00  0.00000000E+00
  0.00000000E+00  0.00000000E+00  0.00000000E+00
  0.00000000E+00  0.00000000E+00  0.00000000E+00
  0.00000000E+00  0.00000000E+00  0.00000000E+00
  0.00000000E+00  0.00000000E+00  0.00000000E+00
  0.00000000E+00  0.00000000E+00  0.00000000E+00
  0.00000000E+00  0.00000000E+00  0.00000000E+00
  0.00000000E+00  0.00000000E+00  0.00000000E+00
  0.00000000E+00  0.00000000E+00  0.00000000E+00
  0.00000000E+00  0.00000000E+00  0.00000000E+00
  0.00000000E+00  0.00000000E+00  0.00000000E+00
  0.00000000E+00  0.00000000E+00  0.00000000E+00
  0.00000000E+00  0.00000000E+00  0.00000000E+00
  0.00000000E+00  0.00000000E+00  0.00000000E+00
  0.00000000E+00  0.00000000E+00  0.00000000E+00
  0.00000000E+00  0.00000000E+00  0.00000000E+00
  0.00000000E+00  0.00000000E+00  0.00000000E+00
  0.00000000E+00  0.00000000E+00  0.00000000E+00
  0.00000000E+00  0.00000000E+00  0.00000000E+00
  0.00000000E+00  0.00000000E+00  0.00000000E+00
  0.00000000E+00  0.00000000E+00  0.00000000E+00
  0.00000000E+00  0.00000000E+00  0.00000000E+00
  0.00000000E+00  0.00000000E+00  0.00000000E+00
  0.00000000E+00  0.00000000E+00  0.00000000E+00
  0.00000000E+00  0.00000000E+00  0.00000000E+00
  0.00000000E+00  0.00000000E+00  0.00000000E+00
  0.00000000E+00  0.00000000E+00  0.00000000E+00
  0.00000000E+00  0.00000000E+00  0.00000000E+00
  0.00000000E+00  0.00000000E+00  0.00000000E+00
  0.00000000E+00  0.00000000E+00  0.00000000E+00
  0.00000000E+00  0.00000000E+00  0.00000000E+00
