FeNiCoCrPd_SQSfcc24_Cr64                
   3.80000000000000     
     2.4095565775111205   -1.4294544637323126    1.8963319755143921
     1.4444552171421712    2.3850259163491483   -1.8927532201855064
    -1.4436424525237921    2.3895966622153040    1.8991258075413495
   Fe   Ni   Co   Cr   Pd
    24    24    24    64    24
Direct
  0.0286994454824020  0.9499191093493943  0.6626043616789696
  0.0582250588544926  0.5047725964946975  0.9339115319682604
  0.0931941961905619  0.4595139681578111  0.6042630288200931
  0.3058379966939327  0.8903487902200672  0.0743803545673656
  0.4465201198789064  0.6965671215738535  0.7665472944177798
  0.4057729483569960  0.5496171418344269  0.8889349033298897
  0.3683568067864570  0.6008817101373438  0.2345935292595876
  0.5013950634722966  0.7865908376039115  0.2957408310172729
  0.4731446890741320  0.6406581265547708  0.4409222993134051
  0.4419191320818952  0.4986593312948240  0.5681600312297154
  0.2394361659116925  0.0016594577468570  0.7398801289339975
  0.6587237322971617  0.5479979665635251  0.6518246022828158
  0.7834222368916761  0.7513781776625720  0.7228188222968001
  0.3720754315076204  0.0048330756258909  0.6190118944134874
  0.6223751818764741  0.3969475526920073  0.7737783773211699
  0.8816043522346899  0.8074689409299919  0.9237406370666345
  0.7178791024295583  0.4465351917943206  0.9703054084993680
  0.5910073216447953  0.4501355900796734  0.1024205420424964
  0.9102773216509408  0.7556889811249228  0.5938681723418010
  0.9639908003538948  0.6571715777214947  0.9222143606878445
  0.6871544266130472  0.1024013011391480  0.9213385933675171
  0.5590215212553826  0.0925780409148537  0.0397501909840731
  0.8511911335677724  0.2521550924291013  0.6539869169901974
  0.8160532798674844  0.0915166546560531  0.7873813228262441
  0.9979100439184562  0.8007525106233816  0.7934261781089622
  0.0623488113596144  0.2950749158689184  0.7428234257419983
  0.1581558968657706  0.5533972948376191  0.1423924115682290
  0.1339853092222636  0.4094422842577524  0.2828199063411049
  0.4757417813537246  0.8468805201245564  0.6331257598271373
  0.2868355472983545  0.3475887127614161  0.8224569204645994
  0.1138223945875439  0.9943531294127701  0.8678414979376426
  0.4058037521301435  0.7527825029654840  0.1002614755290343
  0.5311643398898553  0.9470532738068611  0.1640142694642840
  0.0902125181944418  0.0473117769696733  0.2084744106920439
  0.2215839023206290  0.2570038504460184  0.2913376403184443
  0.4111165581623825  0.3505108996043799  0.6953459512845606
  0.3698068051815426  0.2004400749741020  0.8141154921657102
  0.6597302315759684  0.9508456883966252  0.0482455179486389
  0.8169638002027142  0.8990067651834279  0.5920345613104131
  0.4932537726968883  0.2004520362761971  0.6918174434818697
  0.7196646919741230  0.6591081024033626  0.1869432815605696
  0.4258432273062766  0.0957111862418439  0.1550938196738575
  0.6552336426155457  0.3517377261744535  0.4489054738558674
  0.9658760167650466  0.8550236900347774  0.1287286113891344
  0.8772226132838590  0.3965013718284643  0.5245195822546123
  0.9325049157414330  0.5085910914461991  0.0531678643083348
  0.7798973594152336  0.1444929760811510  0.1212003244716049
  0.9676175077973036  0.0473859408158404  0.3353749232274425
  0.1558613141008205  0.9519027199724047  0.5440531125874672
  0.1226506050771083  0.7990421737204931  0.6682600240595516
  0.0930478239541918  0.8502603061971160  0.9932784746564860
  0.1516625987413669  0.7437471070620509  0.3468051975592418
  0.1306368649908378  0.6019220450530210  0.4728767506149242
  0.4394680439578065  0.8992130621315128  0.9691420966222626
  0.2491745625641014  0.5973382551341760  0.3527629146999823
  0.0641512577935797  0.0980523529806156  0.5372283410200849
  0.0029235640422108  0.9992129781510440  0.9979702336742001
  0.2535553923733651  0.4060711872338983  0.1562570462106812
  0.3452223752213779  0.4494385673480251  0.3677449712394069
  0.6916390264591209  0.8916568897845111  0.7147195531134000
  0.2805458560111237  0.1478722168892840  0.6145507268838686
  0.7872461112296291  0.9468965213681015  0.9253559607831395
  0.4974470004564480  0.3996495902721477  0.8961790268999993
  0.6288739164196048  0.8074240716607443  0.1801041966204806
  0.3018717564888405  0.1104226619249501  0.2796800844196258
  0.9034521394782662  0.9487193649422585  0.7946233518492242
  0.9430215993990415  0.9042380663584343  0.4618402887699122
  0.4988322281444512  0.9997078878532284  0.5105469409889190
  0.6179733284351631  0.2000713952417870  0.5739348252740094
  0.6559467786699461  0.1390298360985913  0.2400060188095973
  0.9624503687116517  0.4490599139937076  0.7220856174685149
  0.9471828503038631  0.1005402285199194  0.6714483732512343
  0.0554547325826734  0.8965116461758669  0.3389443470367812
  0.0382733575284286  0.7551358488378553  0.4687731679811280
  0.9913521618176340  0.6015356369415615  0.5792365457680317
  0.0797480939055915  0.6446906762164109  0.7844653353321240
  0.2064354651716648  0.8494811370782086  0.8706258514677269
  0.1794450536340406  0.9061465585591197  0.2025987964747199
  0.0435869940643403  0.5607563559571446  0.2771113001872171
  0.0121737645692190  0.3951358114688029  0.4141197319920893
  0.2397482238457941  0.8014716448377217  0.5444857378529085
  0.2195973289705085  0.6480748828791639  0.6743822036512800
  0.0292137516333065  0.1412886514455874  0.8695033258483544
  0.1725528050015402  0.3349285099698308  0.9565693908853924
  0.1718807707727706  0.6904765234886149  0.0012530279197188
  0.2818597783859068  0.7434536956951684  0.2203263892390467
  0.0867979388097065  0.2587624896337655  0.4094998991038111
  0.2299415233579195  0.4599327813625926  0.4793105561093648
  0.3397533087989564  0.6436384296525819  0.5599623533279636
  0.3248031639245919  0.4993250105526069  0.6923308585050802
  0.1532109021189381  0.1439888856513327  0.7356110423321689
  0.5289305588206000  0.7519447199852332  0.9782839636043917
  0.2350927337294428  0.1940462525432861  0.9358339414913621
  0.2965624046522023  0.5495863806964341  0.0340758995952688
  0.1317281273883216  0.1973506291036440  0.0879873619038684
  0.6003918896154166  0.8317573093961428  0.5115238715224225
  0.1852315642975990  0.1063061868189329  0.4115132778931244
  0.3223583963364763  0.3015784866829391  0.4954709742317203
  0.5602973875328248  0.6906901921129359  0.6447114460979978
  0.5346355952265395  0.5454523054726530  0.7687211018829574
  0.6736017599614736  0.7537904973641057  0.8504430637908647
  0.3713055436396431  0.4169488420467208  0.0186045503081125
  0.5038971810631538  0.6163686830996030  0.1111733722563346
  0.2089072744054413  0.0406835884523790  0.0771407249330129
  0.3202770627864014  0.2496357768771975  0.1461531048868434
  0.6130635211092405  0.6694339068719413  0.3295380132433458
  0.7347460630038487  0.8428147823474387  0.3910172744354424
  0.4320466137459174  0.3002562526454529  0.3725251217115142
  0.5617777022933831  0.4999211909220183  0.4503587832213561
  0.7012438836015116  0.6946450529999282  0.5297669772694596
  0.4062680595671448  0.1520750015624396  0.4930857688335164
  0.5369035121045049  0.3571296948898353  0.5762645342065248
  0.7470655308278332  0.5986626651283597  0.8500089344156231
  0.4703671440819469  0.0586285927582926  0.8256056806365567
  0.5829401388480161  0.2452249596894038  0.8965122444781749
  0.7466792239078072  0.8016718009657601  0.0522095727688099
  0.8382421638626991  0.8532084094795974  0.2536939179170762
  0.8381129651776753  0.6938010268991539  0.3952014859179425
  0.7831702279689473  0.5435574603738039  0.5232825757655921
  0.7530156745592292  0.3974099834074423  0.6456304843665653
  0.8717180522658168  0.6070414941076374  0.7172798256375692
  0.5830639130724470  0.0486713173716296  0.7047484711172788
  0.8425445098582389  0.4619372886214299  0.8430546924462943
  0.8139670206116879  0.3114789558788981  0.9863258237708042
  0.8422694265950645  0.6593740372945318  0.0499267475013001
  0.8078646099215905  0.5169962779453489  0.1697996576886951
  0.9377225458841041  0.7116091203352161  0.2601981806344389
  0.7801918336993066  0.3288757885885046  0.3319679239603984
  0.9157976071245288  0.5377520624342560  0.3833138075955647
  0.7443301576144811  0.2014341866506975  0.4503433871077070
  0.9427057997110556  0.3095132251401044  0.8535460103233768
  0.7486461934323162  0.9967873448031023  0.2435989125584197
  0.8645524322402388  0.1929903104468624  0.3231152379198059
  0.8573313401754294  0.0664158478969636  0.4590855710549106
  0.9661938755882833  0.2411620185469097  0.5399049517309530
  0.8751262406089158  0.9962038019449475  0.1275165606703640
  0.0614136570256714  0.7050307293342336  0.1343098340323661
  0.2754696225644694  0.9528998079729926  0.4136848445973694
  0.3424599211389247  0.8529502170485233  0.7514469950158938
  0.1844670782090458  0.4922804531371026  0.8157712342833353
  0.3094007550727095  0.7002383917033522  0.8909813566321918
  0.0363005246161706  0.3572563132200074  0.0648869730777912
  0.3985392372749971  0.9453159737541942  0.2805388821007214
  0.0022412898059333  0.2011251153316591  0.2081026744282982
  0.3788869902998588  0.7945435015981138  0.4284707027796108
  0.1894437494179386  0.3031755344778887  0.6145020590403046
  0.5697437083863338  0.9001578801980772  0.8413697010030854
  0.6221243301922686  0.5994285376949172  0.9775092071773160
  0.3346911434823844  0.0438501072485517  0.9468413746277785
  0.4667071829939167  0.4555562317706415  0.2351012229407639
  0.4571695245816267  0.2517342956285931  0.0241783694235658
  0.5571016384544281  0.2943281405569919  0.2385807634732557
  0.6939259367707595  0.5021894629244067  0.3140303741014632
  0.5266857108192263  0.1449017524315020  0.3717513743444990
  0.7190112927291844  0.2460772754554581  0.7798742620594292
  0.6871724673470854  0.2977802620157716  0.1093250867722902
  0.6293360877646131  0.9883420093361545  0.3729184154250881
  0.7203503783330657  0.0476821969734230  0.5855666294763910
  0.9038530473955448  0.1507269494661829  0.9898573570307126
  0.9103798760542978  0.3659359189884627  0.2029276531787561
 
  0.00000000E+00  0.00000000E+00  0.00000000E+00
  0.00000000E+00  0.00000000E+00  0.00000000E+00
  0.00000000E+00  0.00000000E+00  0.00000000E+00
  0.00000000E+00  0.00000000E+00  0.00000000E+00
  0.00000000E+00  0.00000000E+00  0.00000000E+00
  0.00000000E+00  0.00000000E+00  0.00000000E+00
  0.00000000E+00  0.00000000E+00  0.00000000E+00
  0.00000000E+00  0.00000000E+00  0.00000000E+00
  0.00000000E+00  0.00000000E+00  0.00000000E+00
  0.00000000E+00  0.00000000E+00  0.00000000E+00
  0.00000000E+00  0.00000000E+00  0.00000000E+00
  0.00000000E+00  0.00000000E+00  0.00000000E+00
  0.00000000E+00  0.00000000E+00  0.00000000E+00
  0.00000000E+00  0.00000000E+00  0.00000000E+00
  0.00000000E+00  0.00000000E+00  0.00000000E+00
  0.00000000E+00  0.00000000E+00  0.00000000E+00
  0.00000000E+00  0.00000000E+00  0.00000000E+00
  0.00000000E+00  0.00000000E+00  0.00000000E+00
  0.00000000E+00  0.00000000E+00  0.00000000E+00
  0.00000000E+00  0.00000000E+00  0.00000000E+00
  0.00000000E+00  0.00000000E+00  0.00000000E+00
  0.00000000E+00  0.00000000E+00  0.00000000E+00
  0.00000000E+00  0.00000000E+00  0.00000000E+00
  0.00000000E+00  0.00000000E+00  0.00000000E+00
  0.00000000E+00  0.00000000E+00  0.00000000E+00
  0.00000000E+00  0.00000000E+00  0.00000000E+00
  0.00000000E+00  0.00000000E+00  0.00000000E+00
  0.00000000E+00  0.00000000E+00  0.00000000E+00
  0.00000000E+00  0.00000000E+00  0.00000000E+00
  0.00000000E+00  0.00000000E+00  0.00000000E+00
  0.00000000E+00  0.00000000E+00  0.00000000E+00
  0.00000000E+00  0.00000000E+00  0.00000000E+00
  0.00000000E+00  0.00000000E+00  0.00000000E+00
  0.00000000E+00  0.00000000E+00  0.00000000E+00
  0.00000000E+00  0.00000000E+00  0.00000000E+00
  0.00000000E+00  0.00000000E+00  0.00000000E+00
  0.00000000E+00  0.00000000E+00  0.00000000E+00
  0.00000000E+00  0.00000000E+00  0.00000000E+00
  0.00000000E+00  0.00000000E+00  0.00000000E+00
  0.00000000E+00  0.00000000E+00  0.00000000E+00
  0.00000000E+00  0.00000000E+00  0.00000000E+00
  0.00000000E+00  0.00000000E+00  0.00000000E+00
  0.00000000E+00  0.00000000E+00  0.00000000E+00
  0.00000000E+00  0.00000000E+00  0.00000000E+00
  0.00000000E+00  0.00000000E+00  0.00000000E+00
  0.00000000E+00  0.00000000E+00  0.00000000E+00
  0.00000000E+00  0.00000000E+00  0.00000000E+00
  0.00000000E+00  0.00000000E+00  0.00000000E+00
  0.00000000E+00  0.00000000E+00  0.00000000E+00
  0.00000000E+00  0.00000000E+00  0.00000000E+00
  0.00000000E+00  0.00000000E+00  0.00000000E+00
  0.00000000E+00  0.00000000E+00  0.00000000E+00
  0.00000000E+00  0.00000000E+00  0.00000000E+00
  0.00000000E+00  0.00000000E+00  0.00000000E+00
  0.00000000E+00  0.00000000E+00  0.00000000E+00
  0.00000000E+00  0.00000000E+00  0.00000000E+00
  0.00000000E+00  0.00000000E+00  0.00000000E+00
  0.00000000E+00  0.00000000E+00  0.00000000E+00
  0.00000000E+00  0.00000000E+00  0.00000000E+00
  0.00000000E+00  0.00000000E+00  0.00000000E+00
  0.00000000E+00  0.00000000E+00  0.00000000E+00
  0.00000000E+00  0.00000000E+00  0.00000000E+00
  0.00000000E+00  0.00000000E+00  0.00000000E+00
  0.00000000E+00  0.00000000E+00  0.00000000E+00
  0.00000000E+00  0.00000000E+00  0.00000000E+00
  0.00000000E+00  0.00000000E+00  0.00000000E+00
  0.00000000E+00  0.00000000E+00  0.00000000E+00
  0.00000000E+00  0.00000000E+00  0.00000000E+00
  0.00000000E+00  0.00000000E+00  0.00000000E+00
  0.00000000E+00  0.00000000E+00  0.00000000E+00
  0.00000000E+00  0.00000000E+00  0.00000000E+00
  0.00000000E+00  0.00000000E+00  0.00000000E+00
  0.00000000E+00  0.00000000E+00  0.00000000E+00
  0.00000000E+00  0.00000000E+00  0.00000000E+00
  0.00000000E+00  0.00000000E+00  0.00000000E+00
  0.00000000E+00  0.00000000E+00  0.00000000E+00
  0.00000000E+00  0.00000000E+00  0.00000000E+00
  0.00000000E+00  0.00000000E+00  0.00000000E+00
  0.00000000E+00  0.00000000E+00  0.00000000E+00
  0.00000000E+00  0.00000000E+00  0.00000000E+00
  0.00000000E+00  0.00000000E+00  0.00000000E+00
  0.00000000E+00  0.00000000E+00  0.00000000E+00
  0.00000000E+00  0.00000000E+00  0.00000000E+00
  0.00000000E+00  0.00000000E+00  0.00000000E+00
  0.00000000E+00  0.00000000E+00  0.00000000E+00
  0.00000000E+00  0.00000000E+00  0.00000000E+00
  0.00000000E+00  0.00000000E+00  0.00000000E+00
  0.00000000E+00  0.00000000E+00  0.00000000E+00
  0.00000000E+00  0.00000000E+00  0.00000000E+00
  0.00000000E+00  0.00000000E+00  0.00000000E+00
  0.00000000E+00  0.00000000E+00  0.00000000E+00
  0.00000000E+00  0.00000000E+00  0.00000000E+00
  0.00000000E+00  0.00000000E+00  0.00000000E+00
  0.00000000E+00  0.00000000E+00  0.00000000E+00
  0.00000000E+00  0.00000000E+00  0.00000000E+00
  0.00000000E+00  0.00000000E+00  0.00000000E+00
  0.00000000E+00  0.00000000E+00  0.00000000E+00
  0.00000000E+00  0.00000000E+00  0.00000000E+00
  0.00000000E+00  0.00000000E+00  0.00000000E+00
  0.00000000E+00  0.00000000E+00  0.00000000E+00
  0.00000000E+00  0.00000000E+00  0.00000000E+00
  0.00000000E+00  0.00000000E+00  0.00000000E+00
  0.00000000E+00  0.00000000E+00  0.00000000E+00
  0.00000000E+00  0.00000000E+00  0.00000000E+00
  0.00000000E+00  0.00000000E+00  0.00000000E+00
  0.00000000E+00  0.00000000E+00  0.00000000E+00
  0.00000000E+00  0.00000000E+00  0.00000000E+00
  0.00000000E+00  0.00000000E+00  0.00000000E+00
  0.00000000E+00  0.00000000E+00  0.00000000E+00
  0.00000000E+00  0.00000000E+00  0.00000000E+00
  0.00000000E+00  0.00000000E+00  0.00000000E+00
  0.00000000E+00  0.00000000E+00  0.00000000E+00
  0.00000000E+00  0.00000000E+00  0.00000000E+00
  0.00000000E+00  0.00000000E+00  0.00000000E+00
  0.00000000E+00  0.00000000E+00  0.00000000E+00
  0.00000000E+00  0.00000000E+00  0.00000000E+00
  0.00000000E+00  0.00000000E+00  0.00000000E+00
  0.00000000E+00  0.00000000E+00  0.00000000E+00
  0.00000000E+00  0.00000000E+00  0.00000000E+00
  0.00000000E+00  0.00000000E+00  0.00000000E+00
  0.00000000E+00  0.00000000E+00  0.00000000E+00
  0.00000000E+00  0.00000000E+00  0.00000000E+00
  0.00000000E+00  0.00000000E+00  0.00000000E+00
  0.00000000E+00  0.00000000E+00  0.00000000E+00
  0.00000000E+00  0.00000000E+00  0.00000000E+00
  0.00000000E+00  0.00000000E+00  0.00000000E+00
  0.00000000E+00  0.00000000E+00  0.00000000E+00
  0.00000000E+00  0.00000000E+00  0.00000000E+00
  0.00000000E+00  0.00000000E+00  0.00000000E+00
  0.00000000E+00  0.00000000E+00  0.00000000E+00
  0.00000000E+00  0.00000000E+00  0.00000000E+00
  0.00000000E+00  0.00000000E+00  0.00000000E+00
  0.00000000E+00  0.00000000E+00  0.00000000E+00
  0.00000000E+00  0.00000000E+00  0.00000000E+00
  0.00000000E+00  0.00000000E+00  0.00000000E+00
  0.00000000E+00  0.00000000E+00  0.00000000E+00
  0.00000000E+00  0.00000000E+00  0.00000000E+00
  0.00000000E+00  0.00000000E+00  0.00000000E+00
  0.00000000E+00  0.00000000E+00  0.00000000E+00
  0.00000000E+00  0.00000000E+00  0.00000000E+00
  0.00000000E+00  0.00000000E+00  0.00000000E+00
  0.00000000E+00  0.00000000E+00  0.00000000E+00
  0.00000000E+00  0.00000000E+00  0.00000000E+00
  0.00000000E+00  0.00000000E+00  0.00000000E+00
  0.00000000E+00  0.00000000E+00  0.00000000E+00
  0.00000000E+00  0.00000000E+00  0.00000000E+00
  0.00000000E+00  0.00000000E+00  0.00000000E+00
  0.00000000E+00  0.00000000E+00  0.00000000E+00
  0.00000000E+00  0.00000000E+00  0.00000000E+00
  0.00000000E+00  0.00000000E+00  0.00000000E+00
  0.00000000E+00  0.00000000E+00  0.00000000E+00
  0.00000000E+00  0.00000000E+00  0.00000000E+00
  0.00000000E+00  0.00000000E+00  0.00000000E+00
  0.00000000E+00  0.00000000E+00  0.00000000E+00
  0.00000000E+00  0.00000000E+00  0.00000000E+00
  0.00000000E+00  0.00000000E+00  0.00000000E+00
  0.00000000E+00  0.00000000E+00  0.00000000E+00
  0.00000000E+00  0.00000000E+00  0.00000000E+00
  0.00000000E+00  0.00000000E+00  0.00000000E+00
  0.00000000E+00  0.00000000E+00  0.00000000E+00
