FeNiCoCrPd_SQSfcc24_Pd64                
   3.80000000000000     
     2.4719713772177991   -1.4759883981834008    1.9838479140232261
     1.4808939165388160    2.4594544786898624   -1.9813890946006227
    -1.4813969451928832    2.4599527329717890    1.9816226690258079
   Fe   Ni   Co   Cr   Pd
    24    24    24    24    64
Direct
  0.0256535999464661  0.9510478461435280  0.6703889080077751
  0.0638020404439700  0.5037972171908317  0.9369882914581315
  0.0874508209402673  0.4471240163063372  0.6149506201491481
  0.3220132118661216  0.9007993638726742  0.0860608436130772
  0.4378890742426453  0.7063028655771962  0.7577145430916746
  0.4006394414050831  0.5438338148238460  0.8901629513790232
  0.3689705140458007  0.5920372933125515  0.2251695420788216
  0.5028307619090477  0.8015850422471554  0.2945358449439901
  0.4631588978099332  0.6494589894422930  0.4243923571871602
  0.4334004671243182  0.5016733661370409  0.5596931605860526
  0.2469846597593305  0.0016305525126551  0.7477756368883838
  0.6587946994549349  0.5517029552003215  0.6437124488703528
  0.7887890196852481  0.7670047062783152  0.7224074972892138
  0.3753995030718332  0.0046146963497378  0.6306269255287058
  0.6187975256418592  0.3942472658434120  0.7806284194359407
  0.8797695909507601  0.8121722477171001  0.9296744790161090
  0.7134687440046529  0.4485212451081186  0.9792638079588911
  0.5950384998164798  0.4483376421831526  0.0984775803005034
  0.9120281650931359  0.7584420475677851  0.5928914444317710
  0.9685868995138642  0.6610583087916720  0.9261877036783173
  0.6922617704731810  0.0986161509825437  0.9192116260920692
  0.5586219327905871  0.0964506268704368  0.0480598796995691
  0.8448214445362251  0.2455562293068599  0.6564247124977852
  0.8103289964647081  0.0927946593392446  0.7874945568712572
  0.9963795280086564  0.8075895937492388  0.7968445509422210
  0.0640622371588781  0.3025372739297455  0.7386030659011802
  0.1588196640341120  0.5423674769095089  0.1434887830173842
  0.1351347914873230  0.3993779742092110  0.2715872820577027
  0.4708155811169304  0.8560384529992231  0.6369453436663990
  0.2837715985324063  0.3472661762927277  0.8162893175347167
  0.1128295865416843  0.9931395002082051  0.8693260732362839
  0.4105730628054453  0.7574861163391430  0.0967920997768331
  0.5245238337393235  0.9472648374366206  0.1649069893778062
  0.0964784424648319  0.0492645401743200  0.2091137041000117
  0.2189502878882390  0.2531021731977237  0.2809954668207503
  0.4065421423750907  0.3428680278021210  0.7007993498398279
  0.3738480507616021  0.2003090304366000  0.8182747409756534
  0.6500142224392994  0.9556853724612703  0.0378266511307895
  0.8205925691490688  0.9035949997055034  0.5984525101144934
  0.4991987249465517  0.2004829787283057  0.7016952275634213
  0.7173049660580056  0.6467509607215890  0.1761181841440091
  0.4362193344184104  0.0948178992827462  0.1609347257826315
  0.6493075192785647  0.3408782433779848  0.4447489057677579
  0.9744229951750824  0.8559597249256369  0.1259298359487883
  0.8754695322148068  0.3919122514562165  0.5308760846299041
  0.9504416751096688  0.5072844643239697  0.0589308970636721
  0.7736302460672232  0.1487372369597647  0.1155429796657925
  0.9717463551709362  0.0479469245313675  0.3336300688115545
  0.1527959844506173  0.9555454012460675  0.5564717237844754
  0.1231406468423526  0.8133999873513800  0.6765597352526900
  0.0781554133458365  0.8482376613531626  0.9947946176090995
  0.1668994427157427  0.7454318764612179  0.3512136255573283
  0.1299511629801146  0.6056763794836433  0.4675017915065520
  0.4396692951426562  0.9067603989734871  0.9687073627061994
  0.2580088289680515  0.5973211523822750  0.3445406872303686
  0.0600210520776132  0.0880817830516087  0.5352708369869215
  0.9946503039422357  0.9928631115499076  0.9943140597533926
  0.2529223527152090  0.3987943653882389  0.1586267722148266
  0.3396430581740135  0.4549229134093136  0.3492582125113912
  0.6975295216755822  0.9096473582609627  0.7178376879460030
  0.2857933551082361  0.1410500114980637  0.6239519925108308
  0.7815114058292877  0.9578193572038377  0.9115518294581501
  0.4996386437276767  0.3984240370325545  0.9002792390761064
  0.6172286052038579  0.8006323144882365  0.1745280429476207
  0.3169422050264414  0.0950474343005666  0.2880924802725850
  0.9026831877220192  0.9461678732606815  0.7957708908900101
  0.9456262658258698  0.9036523288201758  0.4746283641709120
  0.5054847718974426  0.0040832919969823  0.4981940555927756
  0.6253956750461446  0.1970881802965470  0.5785456671207402
  0.6409969464435152  0.1393857748447301  0.2380005855927852
  0.9709181934886069  0.4445227288648176  0.7265479139868222
  0.9334909825874683  0.0947068400311664  0.6662491283829045
  0.0648757792344275  0.6986331137850923  0.1397477061141908
  0.2899587933026656  0.9507944340154434  0.4132017793078335
  0.3422737483601764  0.8510335032330024  0.7586792929272522
  0.1864369188750840  0.4953307350927975  0.8129056964589031
  0.3113003922465573  0.7074515021048170  0.8893489906505944
  0.0314944703206005  0.3549522263995173  0.0776111010613979
  0.4189492549824337  0.9618155827366296  0.2965572276705065
  0.9992302980356335  0.2001889337480728  0.2042202401985035
  0.3788248394591823  0.8154902231770895  0.4228049001504713
  0.1909598321227485  0.2952153814434879  0.6160942659843233
  0.5712356908910153  0.9058128898211908  0.8409619003864103
  0.6274005727158283  0.6043363812102334  0.9750939341452929
  0.3457857714985852  0.0460555383570031  0.9587445396397248
  0.4615437823580415  0.4475630800274529  0.2262640282031008
  0.4677526563217836  0.2543643999472996  0.0321636389806229
  0.5583363253395797  0.2965829235603532  0.2296874354562626
  0.6853845878031118  0.4946578639441627  0.3020447275343374
  0.5234322846350545  0.1457831538108482  0.3642708924049148
  0.7166389506467132  0.2450899026043167  0.7808150318948894
  0.6820462715461768  0.2910197585738192  0.1160322225657713
  0.6122486698755431  0.9921653371081822  0.3647759055111988
  0.7240974612527932  0.0531385308883866  0.5912028321912302
  0.9001398305253621  0.1481573782545609  0.9897593776410653
  0.9206920887372629  0.3459982069340569  0.1964423500143333
  0.0690165119135264  0.9020455926283285  0.3419473785008145
  0.0376575697104334  0.7551442083631911  0.4753929296907872
  0.0010282871918158  0.5951415554294235  0.5977184189672549
  0.0916917056912775  0.6476841597232373  0.8072326346027471
  0.2168590312227968  0.8571511348377325  0.8813022664015119
  0.1898472911010096  0.8964113122812220  0.2100153101418979
  0.0429533520970256  0.5473306401991224  0.2647877153381773
  1.0005360094238949  0.3988225719010113  0.4032879814438108
  0.2549063499529310  0.8151178269384873  0.5526264556821187
  0.2217367095930063  0.6536150138238833  0.6813256186882151
  0.0235459197846166  0.1421400917184812  0.8666842791377808
  0.1543709176843543  0.3519004309951328  0.9447342030882129
  0.1848062252296891  0.7044262193667760  0.0177058205879682
  0.2901374660709641  0.7492379376546996  0.2252132911956059
  0.0937145095827527  0.2463316216387756  0.4051950507854984
  0.2193572518030790  0.4552673924894008  0.4772949141485114
  0.3449109955647314  0.6580656040556967  0.5485898271932916
  0.3084929712450580  0.4937723379402426  0.6885714035661733
  0.1536353502857254  0.1472098733099584  0.7362358017407220
  0.5237049176198911  0.7549445091831140  0.9638513593830083
  0.2521935837220315  0.1933827900931984  0.9430383791504922
  0.2818310961658792  0.5555325197749135  0.0203157873020320
  0.1166420187540037  0.1980834506239366  0.0808126090298535
  0.5933192597546944  0.8569643102380691  0.5099868163022402
  0.1913623839805787  0.0986504142342024  0.4145396730095584
  0.3152428822519643  0.3032945832104439  0.4938154310887791
  0.5621934353991862  0.6997745452488504  0.6372229690651028
  0.5274474134173582  0.5442937677716623  0.7685222666721566
  0.6596370967002808  0.7596207536855020  0.8419486103883264
  0.3769406345298879  0.4002446938566464  0.0228054434316674
  0.5047201119905602  0.6023506188500456  0.0966365660281950
  0.2143021389440158  0.0397858365600170  0.0755523906121826
  0.3417837981852810  0.2452927258929674  0.1552151308737867
  0.5890191787512727  0.6471682627193174  0.3022992396110500
  0.7162230614591594  0.8509515070637241  0.3814709564500854
  0.4357693668975614  0.2965514096776191  0.3593814095992625
  0.5556323725826691  0.4983510097146510  0.4345991572470028
  0.6950717788351153  0.7023450888654227  0.5206235935307160
  0.4110967862607340  0.1445493075612099  0.4979352694593980
  0.5344646572547590  0.3535361271674928  0.5792818406798899
  0.7484640353167571  0.6027451745089772  0.8473789895692496
  0.4659773895621405  0.0469115799014534  0.8348243527878128
  0.5886963818573580  0.2489152807291748  0.9101406647702551
  0.7489462601290030  0.8047645049835547  0.0503524318409972
  0.8453695103159081  0.8522474688970996  0.2565548366766389
  0.8142209963689548  0.6990983430407687  0.3867345102041151
  0.7763558648718878  0.5395211508185281  0.5130720400973684
  0.7528448207216206  0.3936447066408194  0.6529262670131696
  0.8736112242850602  0.6104185688849989  0.7208756560383598
  0.5937572145967446  0.0509480414635069  0.7046898477661021
  0.8469674418064997  0.4549768165222451  0.8604781342669604
  0.8137060242176939  0.3030745418630728  0.9969640997909091
  0.8483978609523957  0.6529408148122218  0.0530314215622783
  0.8103699369498013  0.4915048091697420  0.1777338168417589
  0.9455964120010349  0.7027530051880529  0.2591508793429931
  0.7702806901509375  0.3422783334234180  0.3171984239532493
  0.9074295490413655  0.5460578276794943  0.3898821635519127
  0.7372300080897104  0.1916333209696524  0.4515323983447982
  0.9337452359335416  0.2989173886438227  0.8595513150686525
  0.7386544246461405  0.9970498076302754  0.2411821996054457
  0.8693374382064201  0.1940458333054945  0.3199826591119753
  0.8459583539338721  0.0450431521941175  0.4637717419420322
  0.9735689623085163  0.2472408021707736  0.5419463041373792
  0.8819977651755243  0.0084200476799742  0.1219147068217754
 
  0.00000000E+00  0.00000000E+00  0.00000000E+00
  0.00000000E+00  0.00000000E+00  0.00000000E+00
  0.00000000E+00  0.00000000E+00  0.00000000E+00
  0.00000000E+00  0.00000000E+00  0.00000000E+00
  0.00000000E+00  0.00000000E+00  0.00000000E+00
  0.00000000E+00  0.00000000E+00  0.00000000E+00
  0.00000000E+00  0.00000000E+00  0.00000000E+00
  0.00000000E+00  0.00000000E+00  0.00000000E+00
  0.00000000E+00  0.00000000E+00  0.00000000E+00
  0.00000000E+00  0.00000000E+00  0.00000000E+00
  0.00000000E+00  0.00000000E+00  0.00000000E+00
  0.00000000E+00  0.00000000E+00  0.00000000E+00
  0.00000000E+00  0.00000000E+00  0.00000000E+00
  0.00000000E+00  0.00000000E+00  0.00000000E+00
  0.00000000E+00  0.00000000E+00  0.00000000E+00
  0.00000000E+00  0.00000000E+00  0.00000000E+00
  0.00000000E+00  0.00000000E+00  0.00000000E+00
  0.00000000E+00  0.00000000E+00  0.00000000E+00
  0.00000000E+00  0.00000000E+00  0.00000000E+00
  0.00000000E+00  0.00000000E+00  0.00000000E+00
  0.00000000E+00  0.00000000E+00  0.00000000E+00
  0.00000000E+00  0.00000000E+00  0.00000000E+00
  0.00000000E+00  0.00000000E+00  0.00000000E+00
  0.00000000E+00  0.00000000E+00  0.00000000E+00
  0.00000000E+00  0.00000000E+00  0.00000000E+00
  0.00000000E+00  0.00000000E+00  0.00000000E+00
  0.00000000E+00  0.00000000E+00  0.00000000E+00
  0.00000000E+00  0.00000000E+00  0.00000000E+00
  0.00000000E+00  0.00000000E+00  0.00000000E+00
  0.00000000E+00  0.00000000E+00  0.00000000E+00
  0.00000000E+00  0.00000000E+00  0.00000000E+00
  0.00000000E+00  0.00000000E+00  0.00000000E+00
  0.00000000E+00  0.00000000E+00  0.00000000E+00
  0.00000000E+00  0.00000000E+00  0.00000000E+00
  0.00000000E+00  0.00000000E+00  0.00000000E+00
  0.00000000E+00  0.00000000E+00  0.00000000E+00
  0.00000000E+00  0.00000000E+00  0.00000000E+00
  0.00000000E+00  0.00000000E+00  0.00000000E+00
  0.00000000E+00  0.00000000E+00  0.00000000E+00
  0.00000000E+00  0.00000000E+00  0.00000000E+00
  0.00000000E+00  0.00000000E+00  0.00000000E+00
  0.00000000E+00  0.00000000E+00  0.00000000E+00
  0.00000000E+00  0.00000000E+00  0.00000000E+00
  0.00000000E+00  0.00000000E+00  0.00000000E+00
  0.00000000E+00  0.00000000E+00  0.00000000E+00
  0.00000000E+00  0.00000000E+00  0.00000000E+00
  0.00000000E+00  0.00000000E+00  0.00000000E+00
  0.00000000E+00  0.00000000E+00  0.00000000E+00
  0.00000000E+00  0.00000000E+00  0.00000000E+00
  0.00000000E+00  0.00000000E+00  0.00000000E+00
  0.00000000E+00  0.00000000E+00  0.00000000E+00
  0.00000000E+00  0.00000000E+00  0.00000000E+00
  0.00000000E+00  0.00000000E+00  0.00000000E+00
  0.00000000E+00  0.00000000E+00  0.00000000E+00
  0.00000000E+00  0.00000000E+00  0.00000000E+00
  0.00000000E+00  0.00000000E+00  0.00000000E+00
  0.00000000E+00  0.00000000E+00  0.00000000E+00
  0.00000000E+00  0.00000000E+00  0.00000000E+00
  0.00000000E+00  0.00000000E+00  0.00000000E+00
  0.00000000E+00  0.00000000E+00  0.00000000E+00
  0.00000000E+00  0.00000000E+00  0.00000000E+00
  0.00000000E+00  0.00000000E+00  0.00000000E+00
  0.00000000E+00  0.00000000E+00  0.00000000E+00
  0.00000000E+00  0.00000000E+00  0.00000000E+00
  0.00000000E+00  0.00000000E+00  0.00000000E+00
  0.00000000E+00  0.00000000E+00  0.00000000E+00
  0.00000000E+00  0.00000000E+00  0.00000000E+00
  0.00000000E+00  0.00000000E+00  0.00000000E+00
  0.00000000E+00  0.00000000E+00  0.00000000E+00
  0.00000000E+00  0.00000000E+00  0.00000000E+00
  0.00000000E+00  0.00000000E+00  0.00000000E+00
  0.00000000E+00  0.00000000E+00  0.00000000E+00
  0.00000000E+00  0.00000000E+00  0.00000000E+00
  0.00000000E+00  0.00000000E+00  0.00000000E+00
  0.00000000E+00  0.00000000E+00  0.00000000E+00
  0.00000000E+00  0.00000000E+00  0.00000000E+00
  0.00000000E+00  0.00000000E+00  0.00000000E+00
  0.00000000E+00  0.00000000E+00  0.00000000E+00
  0.00000000E+00  0.00000000E+00  0.00000000E+00
  0.00000000E+00  0.00000000E+00  0.00000000E+00
  0.00000000E+00  0.00000000E+00  0.00000000E+00
  0.00000000E+00  0.00000000E+00  0.00000000E+00
  0.00000000E+00  0.00000000E+00  0.00000000E+00
  0.00000000E+00  0.00000000E+00  0.00000000E+00
  0.00000000E+00  0.00000000E+00  0.00000000E+00
  0.00000000E+00  0.00000000E+00  0.00000000E+00
  0.00000000E+00  0.00000000E+00  0.00000000E+00
  0.00000000E+00  0.00000000E+00  0.00000000E+00
  0.00000000E+00  0.00000000E+00  0.00000000E+00
  0.00000000E+00  0.00000000E+00  0.00000000E+00
  0.00000000E+00  0.00000000E+00  0.00000000E+00
  0.00000000E+00  0.00000000E+00  0.00000000E+00
  0.00000000E+00  0.00000000E+00  0.00000000E+00
  0.00000000E+00  0.00000000E+00  0.00000000E+00
  0.00000000E+00  0.00000000E+00  0.00000000E+00
  0.00000000E+00  0.00000000E+00  0.00000000E+00
  0.00000000E+00  0.00000000E+00  0.00000000E+00
  0.00000000E+00  0.00000000E+00  0.00000000E+00
  0.00000000E+00  0.00000000E+00  0.00000000E+00
  0.00000000E+00  0.00000000E+00  0.00000000E+00
  0.00000000E+00  0.00000000E+00  0.00000000E+00
  0.00000000E+00  0.00000000E+00  0.00000000E+00
  0.00000000E+00  0.00000000E+00  0.00000000E+00
  0.00000000E+00  0.00000000E+00  0.00000000E+00
  0.00000000E+00  0.00000000E+00  0.00000000E+00
  0.00000000E+00  0.00000000E+00  0.00000000E+00
  0.00000000E+00  0.00000000E+00  0.00000000E+00
  0.00000000E+00  0.00000000E+00  0.00000000E+00
  0.00000000E+00  0.00000000E+00  0.00000000E+00
  0.00000000E+00  0.00000000E+00  0.00000000E+00
  0.00000000E+00  0.00000000E+00  0.00000000E+00
  0.00000000E+00  0.00000000E+00  0.00000000E+00
  0.00000000E+00  0.00000000E+00  0.00000000E+00
  0.00000000E+00  0.00000000E+00  0.00000000E+00
  0.00000000E+00  0.00000000E+00  0.00000000E+00
  0.00000000E+00  0.00000000E+00  0.00000000E+00
  0.00000000E+00  0.00000000E+00  0.00000000E+00
  0.00000000E+00  0.00000000E+00  0.00000000E+00
  0.00000000E+00  0.00000000E+00  0.00000000E+00
  0.00000000E+00  0.00000000E+00  0.00000000E+00
  0.00000000E+00  0.00000000E+00  0.00000000E+00
  0.00000000E+00  0.00000000E+00  0.00000000E+00
  0.00000000E+00  0.00000000E+00  0.00000000E+00
  0.00000000E+00  0.00000000E+00  0.00000000E+00
  0.00000000E+00  0.00000000E+00  0.00000000E+00
  0.00000000E+00  0.00000000E+00  0.00000000E+00
  0.00000000E+00  0.00000000E+00  0.00000000E+00
  0.00000000E+00  0.00000000E+00  0.00000000E+00
  0.00000000E+00  0.00000000E+00  0.00000000E+00
  0.00000000E+00  0.00000000E+00  0.00000000E+00
  0.00000000E+00  0.00000000E+00  0.00000000E+00
  0.00000000E+00  0.00000000E+00  0.00000000E+00
  0.00000000E+00  0.00000000E+00  0.00000000E+00
  0.00000000E+00  0.00000000E+00  0.00000000E+00
  0.00000000E+00  0.00000000E+00  0.00000000E+00
  0.00000000E+00  0.00000000E+00  0.00000000E+00
  0.00000000E+00  0.00000000E+00  0.00000000E+00
  0.00000000E+00  0.00000000E+00  0.00000000E+00
  0.00000000E+00  0.00000000E+00  0.00000000E+00
  0.00000000E+00  0.00000000E+00  0.00000000E+00
  0.00000000E+00  0.00000000E+00  0.00000000E+00
  0.00000000E+00  0.00000000E+00  0.00000000E+00
  0.00000000E+00  0.00000000E+00  0.00000000E+00
  0.00000000E+00  0.00000000E+00  0.00000000E+00
  0.00000000E+00  0.00000000E+00  0.00000000E+00
  0.00000000E+00  0.00000000E+00  0.00000000E+00
  0.00000000E+00  0.00000000E+00  0.00000000E+00
  0.00000000E+00  0.00000000E+00  0.00000000E+00
  0.00000000E+00  0.00000000E+00  0.00000000E+00
  0.00000000E+00  0.00000000E+00  0.00000000E+00
  0.00000000E+00  0.00000000E+00  0.00000000E+00
  0.00000000E+00  0.00000000E+00  0.00000000E+00
  0.00000000E+00  0.00000000E+00  0.00000000E+00
  0.00000000E+00  0.00000000E+00  0.00000000E+00
  0.00000000E+00  0.00000000E+00  0.00000000E+00
  0.00000000E+00  0.00000000E+00  0.00000000E+00
  0.00000000E+00  0.00000000E+00  0.00000000E+00
  0.00000000E+00  0.00000000E+00  0.00000000E+00
  0.00000000E+00  0.00000000E+00  0.00000000E+00
  0.00000000E+00  0.00000000E+00  0.00000000E+00
