FeNiCoCrMn_SQSfcc24_Co64                
   3.80000000000000     
     2.3269044249187352   -1.3989277474997830    1.8631197149051355
     1.3956446000501161    2.3304932567717822   -1.8632818688768351
    -1.3968601686322344    2.3322015360655048    1.8645060309020474
   Fe   Ni   Co   Cr   Mn
    24    24    64    24    24
Direct
  0.0333154204030080  0.9487597971658978  0.6709552061096379
  0.0649310146988138  0.4979412507391379  0.9431836651144988
  0.0937775310885800  0.4469094234393735  0.6038116707380224
  0.3105103423467329  0.8983037485787576  0.0869520451495741
  0.4393920149034720  0.7033328671129856  0.7637677793016726
  0.4026978736246248  0.5513578607895832  0.8941878553702163
  0.3762782522795107  0.6038047708181411  0.2236721374361148
  0.4974411286684013  0.8024320819463304  0.3048603196062615
  0.4751945879948850  0.6487476438806250  0.4353323056372592
  0.4356852941643066  0.4990032939868508  0.5661353795559455
  0.2523687984939882  1.0002557690440526  0.7547443692625891
  0.6564459828376802  0.5510602906544299  0.6402236520261343
  0.7818675118326024  0.7487273266421983  0.7198813294830212
  0.3828122659839538  0.9987696022332140  0.6274411731231361
  0.6282928701288271  0.3999197804166944  0.7709942141553270
  0.8691021362010403  0.7960380122500882  0.9253450897091258
  0.7259578649638077  0.4513376613129734  0.9845803411847200
  0.5944545283835578  0.4541094341725508  0.1110202977873009
  0.9042582365089533  0.7432703804880084  0.5920343759290425
  0.9646652198974686  0.6448794642610746  0.9300954155677547
  0.6863837072281623  0.1016433816596385  0.9112241000564510
  0.5613300118243464  0.1049170151370542  0.0342728923154045
  0.8437976209247786  0.2514664172910005  0.6535380352596148
  0.8153880577887087  0.1018278348772384  0.7922242033635638
 -0.0000463392316701  0.7992592954125154  0.8000792126924949
  0.0606229404452722  0.2980830357385880  0.7358130617318522
  0.1570182001234680  0.5510519758107489  0.1453049099163602
  0.1238433577904569  0.4016232324340684  0.2757629744834926
  0.4704878157818317  0.8488558115762993  0.6305413151476075
  0.2813598458805908  0.3489098907798039  0.8180068977915433
  0.1253138874476809  0.0016342835176739  0.8762352551308219
  0.4054245211956128  0.7511407528414574  0.0938787114102628
  0.5310147750494267  0.9521924691682111  0.1667329461419587
  0.0925400344505560  0.0489735134309978  0.2052320998187194
  0.2163828244992058  0.2479973797027558  0.2794575044398760
  0.4083032627699852  0.3518144081841265  0.6942557084886650
  0.3757308379951885  0.1995126716742622  0.8279536845723017
  0.6568198922222975  0.9520066013145450  0.0442964350832222
  0.8131209492087830  0.8983730999392244  0.5848735988449245
  0.5005380343263317  0.2000445308655797  0.7008729426522199
  0.7184934956017008  0.6514138809554825  0.1816780509894498
  0.4390101716163287  0.1010550964598359  0.1617458228230989
  0.6565541289820754  0.3495220774642684  0.4454598447753076
  0.9685434649561095  0.8503442433080747  0.1311740370134481
  0.8755063439282967  0.3995115031803167  0.5244563591154371
  0.9383340472827860  0.4985907033287844  0.0660528720908795
  0.7810519090016300  0.1497970872904152  0.1188460246612889
  0.9693776619509721  0.0520932420208223  0.3289861802495854
  0.0614249928907311  0.9017158979981768  0.3350218756451786
  0.0294253075625984  0.7483693584890146  0.4674402735161896
  0.0002035381406191  0.5981852681833553  0.5990505540394185
  0.0944296544341238  0.6512619401113958  0.8065368207191150
  0.2173243473485057  0.8475524952066739  0.8780378339630434
  0.1873405664746072  0.9031248624878336  0.2126858059184170
  0.0309480408602820  0.5501587303494279  0.2693203682533253
  0.0001307137440820  0.4004772447635382  0.3997736772707560
  0.2540371508119776  0.7972349614251719  0.5497281171462797
  0.2197898153313495  0.6461829351524242  0.6856384676860842
  0.0330302350153329  0.1529569084688750  0.8686498900155303
  0.1568755540085712  0.3493589223150758  0.9418907721903910
  0.1873152335998298  0.6982978628516000  0.0124334159897474
  0.2771895879378534  0.7510573079584434  0.2173182731769634
  0.0954045601774531  0.2549052810211075  0.4055984943514440
  0.2168058429065279  0.4504002125499775  0.4836856882340386
  0.3463360692848048  0.6507187710814273  0.5607810845813659
  0.3144448066746729  0.4998120969165809  0.6903758114265791
  0.1566861593061965  0.1493432085434525  0.7451630573583484
  0.5327954896566108  0.7508260288881579  0.9678071940054183
  0.2519163667808502  0.1996968240221226  0.9528642093548810
  0.2815876662502883  0.5541396710080334  0.0179178824831197
  0.1274098314629363  0.1972433771505331  0.0723635269507558
  0.5962706415607198  0.8492197945669008  0.5050159389542851
  0.1854900517452832  0.1011161401632048  0.4114342663293894
  0.3091823160029578  0.2970579649918176  0.4860044380867397
  0.5636420680785509  0.7004562208850823  0.6387046386408836
  0.5326318975730159  0.5533590245051476  0.7692167627718316
  0.6554070613468522  0.7476183725960501  0.8444644433567903
  0.3741719837868149  0.4019461699350955  0.0249024280898921
  0.4968410738605639  0.5984618448546323  0.0990032336511355
  0.2188473307246006  0.0495556889702189  0.0814441858878465
  0.3472395715284782  0.2514225820175540  0.1554000649228076
  0.5938205660913589  0.6460164645723885  0.3053833504140931
  0.7167512563097714  0.8476363999047786  0.3812657833431538
  0.4385559910062464  0.2980808304182666  0.3639340748552107
  0.5656211843439861  0.4977866682854856  0.4352578615770600
  0.6878600021289903  0.7009694535416739  0.5104545818303868
  0.4045583227428228  0.1492594604477944  0.4950500380137313
  0.5268393790151568  0.3510431594056149  0.5654289268733977
  0.7470292276266234  0.5979799506118849  0.8513638270289486
  0.4690546244212596  0.0549844308831577  0.8319861929315284
  0.5947694596284795  0.2519222195680013  0.9051439806148771
  0.7514336702859223  0.8002504303560126  0.0502056490625259
  0.8450159947303234  0.8501184592020876  0.2550728537016334
  0.8086669639913031  0.6972185605730168  0.3844875025456489
  0.7833638013854612  0.5485876763679529  0.5184278481353050
  0.7500888743054582  0.4018573205636791  0.6487484683483550
  0.8739575494953971  0.6009721383485735  0.7261002660489804
  0.5942416121224484  0.0491990176327374  0.7084430734770407
  0.8447316791878916  0.4479762411255054  0.8583723830193338
  0.8150570437121845  0.2982593562873178  0.9885576009886402
  0.8434067997325758  0.6512027546072082  0.0589245922098764
  0.8121975225399211  0.5010265580240407  0.1895033164885990
  0.9359822971407268  0.7010141150910097  0.2647736523747246
  0.7795195060672452  0.3490997454309355  0.3168236765976683
  0.9069260529130654  0.5508076243067642  0.3941775435787017
  0.7477010004690479  0.1979111439196478  0.4489157106485377
  0.9390240199282026  0.2986632739726747  0.8625695360775157
  0.7552305035766056  0.0020339399218478  0.2517099946368858
  0.8769318477762102  0.2009556141697125  0.3265399799203094
  0.8424630594671291  0.0518203287573554  0.4539350581569901
  0.9678820770255635  0.2498826601561388  0.5279815996123889
  0.8731054462649991  0.9990270333937894  0.1259604565774682
  0.0634963518917444  0.7006752548941185  0.1391569566728404
  0.2789616963726884  0.9537713030144387  0.4212075774123684
  0.3375801709504890  0.8530401181644748  0.7471206362128825
  0.1840011557249815  0.4959211228595782  0.8107092261936685
  0.3122333692233973  0.7029868649595342  0.8908296523383058
  0.0318359795586664  0.3493532654779979  0.0678974833623572
  0.4010447922403484  0.9459476758622855  0.2837893833299193
  0.9989016769514490  0.2015806020495757  0.1921154968669439
  0.3763009832257610  0.7925007340192487  0.4273350540628292
  0.1875273342760102  0.2979990391938803  0.6132314755891420
  0.5612386516174206  0.9023056102621501  0.8377811191852984
  0.6249007826227746  0.6030084726736554  0.9753262948819003
  0.3405728478385089  0.0451523366007316  0.9547870260175511
  0.4642955286590716  0.4483755512932289  0.2281698969247356
  0.4720458224439648  0.2616954041471514  0.0364385233878110
  0.5621867584801903  0.2965467552201699  0.2425473338285679
  0.6910632253510647  0.4994952753585158  0.3119354176956139
  0.5308440343726551  0.1487841291441129  0.3763086239619122
  0.7247030690858037  0.2488712718831788  0.7818817903738677
  0.6874381755881631  0.3020438089262523  0.1104609070014596
  0.6281212363554803  0.9960137675401431  0.3704059885051808
  0.7201637145662676  0.0530986750663214  0.5838673663958005
  0.9045448394291161  0.1494420493257064  0.9912156897611748
  0.9008885814896338  0.3525291837859534  0.1991141271430533
  0.1596537633081178  0.9449446518495086  0.5417622669659042
  0.1271271734521072  0.7926741134213597  0.6757548218753988
  0.0927750450280266  0.8498031195891500  0.0055806349534007
  0.1556234004918073  0.7575854532629613  0.3430478744196505
  0.1258920696170896  0.6040760379090206  0.4767782732899384
  0.4377866925857218  0.8976814309002190  0.9566841543759490
  0.2489798168619910  0.6021877737570098  0.3504524118377991
  0.0631800071594903  0.1037980374896029  0.5349508996426777
  0.9967577196369655  0.0055630935532197  0.9977970489861658
  0.2455513878439042  0.3950498799238824  0.1449007383610796
  0.3432981692498462  0.4453930833945943  0.3574766792943998
  0.6881831720721403  0.9018617413638992  0.7131463508593745
  0.2857680682597036  0.1532156207931222  0.6203147136138341
  0.7775988781492542  0.9476893947294818  0.9236561122700805
  0.4990513660895683  0.4002584116605524  0.8991316949018882
  0.6229942758663384  0.7997731609104446  0.1736944743392897
  0.3152861141573950  0.1019598571861399  0.2875674752452867
  0.9064632810068004  0.9495653413862082  0.7919732057671542
  0.9335633386119467  0.8979488099458883  0.4574507928880758
  0.4997920330124256  0.9966698462349891  0.4961654728662501
  0.6225280841992755  0.2011817397667337  0.5783866043257864
  0.6580427099998153  0.1495245682563016  0.2457512128922402
  0.9694206934778470  0.4528357117893491  0.7326237912557875
  0.9337347628006076  0.0982079536321450  0.6619720697027387
 
  0.00000000E+00  0.00000000E+00  0.00000000E+00
  0.00000000E+00  0.00000000E+00  0.00000000E+00
  0.00000000E+00  0.00000000E+00  0.00000000E+00
  0.00000000E+00  0.00000000E+00  0.00000000E+00
  0.00000000E+00  0.00000000E+00  0.00000000E+00
  0.00000000E+00  0.00000000E+00  0.00000000E+00
  0.00000000E+00  0.00000000E+00  0.00000000E+00
  0.00000000E+00  0.00000000E+00  0.00000000E+00
  0.00000000E+00  0.00000000E+00  0.00000000E+00
  0.00000000E+00  0.00000000E+00  0.00000000E+00
  0.00000000E+00  0.00000000E+00  0.00000000E+00
  0.00000000E+00  0.00000000E+00  0.00000000E+00
  0.00000000E+00  0.00000000E+00  0.00000000E+00
  0.00000000E+00  0.00000000E+00  0.00000000E+00
  0.00000000E+00  0.00000000E+00  0.00000000E+00
  0.00000000E+00  0.00000000E+00  0.00000000E+00
  0.00000000E+00  0.00000000E+00  0.00000000E+00
  0.00000000E+00  0.00000000E+00  0.00000000E+00
  0.00000000E+00  0.00000000E+00  0.00000000E+00
  0.00000000E+00  0.00000000E+00  0.00000000E+00
  0.00000000E+00  0.00000000E+00  0.00000000E+00
  0.00000000E+00  0.00000000E+00  0.00000000E+00
  0.00000000E+00  0.00000000E+00  0.00000000E+00
  0.00000000E+00  0.00000000E+00  0.00000000E+00
  0.00000000E+00  0.00000000E+00  0.00000000E+00
  0.00000000E+00  0.00000000E+00  0.00000000E+00
  0.00000000E+00  0.00000000E+00  0.00000000E+00
  0.00000000E+00  0.00000000E+00  0.00000000E+00
  0.00000000E+00  0.00000000E+00  0.00000000E+00
  0.00000000E+00  0.00000000E+00  0.00000000E+00
  0.00000000E+00  0.00000000E+00  0.00000000E+00
  0.00000000E+00  0.00000000E+00  0.00000000E+00
  0.00000000E+00  0.00000000E+00  0.00000000E+00
  0.00000000E+00  0.00000000E+00  0.00000000E+00
  0.00000000E+00  0.00000000E+00  0.00000000E+00
  0.00000000E+00  0.00000000E+00  0.00000000E+00
  0.00000000E+00  0.00000000E+00  0.00000000E+00
  0.00000000E+00  0.00000000E+00  0.00000000E+00
  0.00000000E+00  0.00000000E+00  0.00000000E+00
  0.00000000E+00  0.00000000E+00  0.00000000E+00
  0.00000000E+00  0.00000000E+00  0.00000000E+00
  0.00000000E+00  0.00000000E+00  0.00000000E+00
  0.00000000E+00  0.00000000E+00  0.00000000E+00
  0.00000000E+00  0.00000000E+00  0.00000000E+00
  0.00000000E+00  0.00000000E+00  0.00000000E+00
  0.00000000E+00  0.00000000E+00  0.00000000E+00
  0.00000000E+00  0.00000000E+00  0.00000000E+00
  0.00000000E+00  0.00000000E+00  0.00000000E+00
  0.00000000E+00  0.00000000E+00  0.00000000E+00
  0.00000000E+00  0.00000000E+00  0.00000000E+00
  0.00000000E+00  0.00000000E+00  0.00000000E+00
  0.00000000E+00  0.00000000E+00  0.00000000E+00
  0.00000000E+00  0.00000000E+00  0.00000000E+00
  0.00000000E+00  0.00000000E+00  0.00000000E+00
  0.00000000E+00  0.00000000E+00  0.00000000E+00
  0.00000000E+00  0.00000000E+00  0.00000000E+00
  0.00000000E+00  0.00000000E+00  0.00000000E+00
  0.00000000E+00  0.00000000E+00  0.00000000E+00
  0.00000000E+00  0.00000000E+00  0.00000000E+00
  0.00000000E+00  0.00000000E+00  0.00000000E+00
  0.00000000E+00  0.00000000E+00  0.00000000E+00
  0.00000000E+00  0.00000000E+00  0.00000000E+00
  0.00000000E+00  0.00000000E+00  0.00000000E+00
  0.00000000E+00  0.00000000E+00  0.00000000E+00
  0.00000000E+00  0.00000000E+00  0.00000000E+00
  0.00000000E+00  0.00000000E+00  0.00000000E+00
  0.00000000E+00  0.00000000E+00  0.00000000E+00
  0.00000000E+00  0.00000000E+00  0.00000000E+00
  0.00000000E+00  0.00000000E+00  0.00000000E+00
  0.00000000E+00  0.00000000E+00  0.00000000E+00
  0.00000000E+00  0.00000000E+00  0.00000000E+00
  0.00000000E+00  0.00000000E+00  0.00000000E+00
  0.00000000E+00  0.00000000E+00  0.00000000E+00
  0.00000000E+00  0.00000000E+00  0.00000000E+00
  0.00000000E+00  0.00000000E+00  0.00000000E+00
  0.00000000E+00  0.00000000E+00  0.00000000E+00
  0.00000000E+00  0.00000000E+00  0.00000000E+00
  0.00000000E+00  0.00000000E+00  0.00000000E+00
  0.00000000E+00  0.00000000E+00  0.00000000E+00
  0.00000000E+00  0.00000000E+00  0.00000000E+00
  0.00000000E+00  0.00000000E+00  0.00000000E+00
  0.00000000E+00  0.00000000E+00  0.00000000E+00
  0.00000000E+00  0.00000000E+00  0.00000000E+00
  0.00000000E+00  0.00000000E+00  0.00000000E+00
  0.00000000E+00  0.00000000E+00  0.00000000E+00
  0.00000000E+00  0.00000000E+00  0.00000000E+00
  0.00000000E+00  0.00000000E+00  0.00000000E+00
  0.00000000E+00  0.00000000E+00  0.00000000E+00
  0.00000000E+00  0.00000000E+00  0.00000000E+00
  0.00000000E+00  0.00000000E+00  0.00000000E+00
  0.00000000E+00  0.00000000E+00  0.00000000E+00
  0.00000000E+00  0.00000000E+00  0.00000000E+00
  0.00000000E+00  0.00000000E+00  0.00000000E+00
  0.00000000E+00  0.00000000E+00  0.00000000E+00
  0.00000000E+00  0.00000000E+00  0.00000000E+00
  0.00000000E+00  0.00000000E+00  0.00000000E+00
  0.00000000E+00  0.00000000E+00  0.00000000E+00
  0.00000000E+00  0.00000000E+00  0.00000000E+00
  0.00000000E+00  0.00000000E+00  0.00000000E+00
  0.00000000E+00  0.00000000E+00  0.00000000E+00
  0.00000000E+00  0.00000000E+00  0.00000000E+00
  0.00000000E+00  0.00000000E+00  0.00000000E+00
  0.00000000E+00  0.00000000E+00  0.00000000E+00
  0.00000000E+00  0.00000000E+00  0.00000000E+00
  0.00000000E+00  0.00000000E+00  0.00000000E+00
  0.00000000E+00  0.00000000E+00  0.00000000E+00
  0.00000000E+00  0.00000000E+00  0.00000000E+00
  0.00000000E+00  0.00000000E+00  0.00000000E+00
  0.00000000E+00  0.00000000E+00  0.00000000E+00
  0.00000000E+00  0.00000000E+00  0.00000000E+00
  0.00000000E+00  0.00000000E+00  0.00000000E+00
  0.00000000E+00  0.00000000E+00  0.00000000E+00
  0.00000000E+00  0.00000000E+00  0.00000000E+00
  0.00000000E+00  0.00000000E+00  0.00000000E+00
  0.00000000E+00  0.00000000E+00  0.00000000E+00
  0.00000000E+00  0.00000000E+00  0.00000000E+00
  0.00000000E+00  0.00000000E+00  0.00000000E+00
  0.00000000E+00  0.00000000E+00  0.00000000E+00
  0.00000000E+00  0.00000000E+00  0.00000000E+00
  0.00000000E+00  0.00000000E+00  0.00000000E+00
  0.00000000E+00  0.00000000E+00  0.00000000E+00
  0.00000000E+00  0.00000000E+00  0.00000000E+00
  0.00000000E+00  0.00000000E+00  0.00000000E+00
  0.00000000E+00  0.00000000E+00  0.00000000E+00
  0.00000000E+00  0.00000000E+00  0.00000000E+00
  0.00000000E+00  0.00000000E+00  0.00000000E+00
  0.00000000E+00  0.00000000E+00  0.00000000E+00
  0.00000000E+00  0.00000000E+00  0.00000000E+00
  0.00000000E+00  0.00000000E+00  0.00000000E+00
  0.00000000E+00  0.00000000E+00  0.00000000E+00
  0.00000000E+00  0.00000000E+00  0.00000000E+00
  0.00000000E+00  0.00000000E+00  0.00000000E+00
  0.00000000E+00  0.00000000E+00  0.00000000E+00
  0.00000000E+00  0.00000000E+00  0.00000000E+00
  0.00000000E+00  0.00000000E+00  0.00000000E+00
  0.00000000E+00  0.00000000E+00  0.00000000E+00
  0.00000000E+00  0.00000000E+00  0.00000000E+00
  0.00000000E+00  0.00000000E+00  0.00000000E+00
  0.00000000E+00  0.00000000E+00  0.00000000E+00
  0.00000000E+00  0.00000000E+00  0.00000000E+00
  0.00000000E+00  0.00000000E+00  0.00000000E+00
  0.00000000E+00  0.00000000E+00  0.00000000E+00
  0.00000000E+00  0.00000000E+00  0.00000000E+00
  0.00000000E+00  0.00000000E+00  0.00000000E+00
  0.00000000E+00  0.00000000E+00  0.00000000E+00
  0.00000000E+00  0.00000000E+00  0.00000000E+00
  0.00000000E+00  0.00000000E+00  0.00000000E+00
  0.00000000E+00  0.00000000E+00  0.00000000E+00
  0.00000000E+00  0.00000000E+00  0.00000000E+00
  0.00000000E+00  0.00000000E+00  0.00000000E+00
  0.00000000E+00  0.00000000E+00  0.00000000E+00
  0.00000000E+00  0.00000000E+00  0.00000000E+00
  0.00000000E+00  0.00000000E+00  0.00000000E+00
  0.00000000E+00  0.00000000E+00  0.00000000E+00
  0.00000000E+00  0.00000000E+00  0.00000000E+00
  0.00000000E+00  0.00000000E+00  0.00000000E+00
  0.00000000E+00  0.00000000E+00  0.00000000E+00
  0.00000000E+00  0.00000000E+00  0.00000000E+00
  0.00000000E+00  0.00000000E+00  0.00000000E+00
  0.00000000E+00  0.00000000E+00  0.00000000E+00
