FeNiCoCrPd_SQS160_bcc31_Pd36            
   2.80000000000000     
    -0.9242424455485134    2.7743728698229306   -1.3090986103448563
    -2.7821506965376104   -0.9269697064393138    2.6222094063749291
     3.7178622090622313    1.8655572002371077    6.5554087104682308
   Fe   Ni   Co   Cr   Pd
    31    31    31    31    36
Direct
  0.7838684283905544  0.9852378513313758  0.0577223832632973
  0.3663439162471723  0.8832260262472358  0.6217126069609252
  0.8345830002631637  0.7255904659956063  0.3759296901294639
  0.8389498786565051  0.6397880276680108  0.8142275312996480
  0.0333727608754254  0.7338552402650504  0.3105657042986470
  0.1008698720714142  0.7178520318947217  0.4383135351933766
  0.2542107098488757  0.6717563937322318  0.6914928105686005
  0.8416463158295368  0.5394447253571303  0.2428793734632195
  0.5796391781089356  0.4736545956990004  0.6259257096420230
  0.7070424963250254  0.4162095476225245  0.8782517039613517
  0.3525936790029570  0.4647547452465322  0.6873429283332819
  0.0717629891931575  0.4779795931663371  0.6270457707531504
  0.2402154701819607  0.4312126605483614  0.8793440055027383
  0.7477932343618299  0.3443279885717876  0.3110872323186781
  0.8278431863315138  0.3176954383654822  0.4369441527025782
  0.4493437710699537  0.3441499671171391  0.2473593932178864
  0.2336282993250793  0.3354995287888995  0.3105343977586084
  0.3065860375826530  0.3096812042615815  0.4360134023309749
  0.0324250235172461  0.2367014709737352  0.8223815787826304
  0.1159699582135723  0.2088631044054005  0.9415883593952457
  0.6892477736156891  0.1898418122270289  0.0606805990568820
  0.5478262228143079  0.1537871279327842  0.2432476493366849
  0.7849966820289506  0.0667849924841126  0.6268363512838840
  0.9242750072012691  0.0297811140482816  0.8762484624337181
  0.1959845649502639  0.1922871491447891  0.0604252520512472
  0.3316991737393989  0.1457104096296175  0.3094269520780887
  0.5621362076007815  0.0524056150822693  0.6865518569935547
  0.6444886218438194  0.0411223704006050  0.8115596501057930
  0.2009947024771409  0.0978524834239726  0.5033253835176755
  0.3550563858581007  0.0339812624435491  0.7476464338818528
  0.2144149630784802  0.0121083261686562  0.9425713897734256
  0.8671039154940852  0.9687739354075385  0.1825938847331809
  0.6468768295739868  0.9566982656824909  0.2462415484006420
  0.8093345663331138  0.9055848305557629  0.5057666615748334
  0.9545988819268738  0.8515519679747823  0.7489408210573294
  0.3564149260776946  0.9596579789163532  0.1832079622085624
  0.1462671926644133  0.9525721566484484  0.2434693025848329
  0.0141784180106080  0.9162268375849348  0.4434391896422872
  0.5976997801813196  0.8063828587878297  0.9962798230512823
  0.6780103825146616  0.7742711546479725  0.1167292621577901
  0.9080464751332040  0.7070559761702411  0.5053239206018518
  0.1767265885135594  0.7773239996115977  0.1219735914626443
  0.2457326789243421  0.7484421343580528  0.2438096736149196
  0.5416856792667309  0.6483214930007148  0.7533881362377167
  0.1808375872439260  0.6965724070157814  0.5679593082826235
  0.4120268863389098  0.6136765392393768  0.9376100201596514
  0.2037214963878244  0.5998778290217143  0.0000247465259907
  0.7901283810406977  0.3939432602525984  0.9999643925913007
  0.5106237058010121  0.3243823471692944  0.3719105998676086
  0.8192061621734237  0.2205961332020119  0.8788588663052852
  0.3819731703808778  0.2777068429490074  0.5634288234612351
  0.5406847439375492  0.2345762237266044  0.8140764534562405
  0.6176704466543562  0.2128605948985117  0.9411001537536641
  0.1119361930758074  0.2974052378879506  0.5009039323440577
  0.4786614259061897  0.1793918943212726  0.1243122682866188
  0.7062955996158615  0.0949168238255260  0.5042714678787004
  0.4081907890709146  0.1153211920243661  0.4399758940433494
  0.4898889218193735  0.0821786914867617  0.5662864898304353
  0.7167501127955584  0.0119165623730268  0.9370316628412909
  0.0532510140571241  0.1507728959332806  0.2439451632437692
  0.0692224371846139  0.0597342804179516  0.6854403547775247
  0.9973117659496747  1.0001770340675940  0.9998010203534577
  0.8879781987097246  0.8809649476776472  0.6264923069130363
  0.6695831804389396  0.8733740986373063  0.6877846700643394
  0.1626446227076251  0.8627018233676788  0.6885922007886967
  0.3102856551340284  0.8169613884997516  0.9393426074036262
  0.8901687239847361  0.7907145660186911  0.0585832472991140
  0.9819167181541892  0.6789461719515789  0.6283719836890576
  0.4463657787716823  0.7551102429527620  0.1851245044291894
  0.1015681836440892  0.8094293672575394  0.0023347815394493
  0.6160216230332294  0.6174871837162832  0.8739436803459233
  0.3442355883685497  0.6393713103148156  0.8128747600162769
  0.0530362433589058  0.6573656079925368  0.7493234735922001
  0.7744469673412572  0.5643851925050084  0.1224703965098911
  0.9299799810279632  0.5286530208788885  0.3718504904552239
  0.4740414469873627  0.5797588161614685  0.0579960612677840
  0.7946519408664509  0.4958681099179695  0.5675293777352203
  0.8639484035155149  0.4677668400243154  0.6834174250318826
  0.2668241614086860  0.5747443164669637  0.1242483490261670
  0.3421525137092505  0.5449910979688412  0.2446320221302214
  0.4153487896781508  0.5116371624381131  0.3723850987020849
  0.2887932414592687  0.4693174057354401  0.5722066907004573
  0.5111791938175464  0.4117748047888007  0.9408399037735387
  0.6674663866256753  0.3573297979295487  0.1877568993328919
  0.3018168194226248  0.3998312933282562  0.9976530312455815
  0.0243938158832654  0.3246971220583298  0.3778431584790198
  0.1767327341264983  0.2679990597263710  0.6234713799147885
  0.7700894385466300  0.1694067775577481  0.1828108421103908
  0.9965245255262587  0.0847555022123455  0.5644591715761522
  0.4092235230556926  0.2037601340830427  0.0030224545981193
  0.8479132389131194  0.0489110092729096  0.7473468443840134
  0.2736521575920366  0.0699831611575193  0.6254424243849303
  0.5013116897666557  0.0026894140465739  0.9991317920867824
  0.2841342578928625  0.9956077250655501  0.0619517541983941
  0.5149407111774232  0.9177487431248547  0.4469401142645889
  0.6010523494889122  0.8934209913191041  0.5687539507555254
  0.8186571087753759  0.8201819028483579  0.9410912868166496
  0.0778228951255432  0.9793679414253040  0.1226412024832114
  0.2957157437838913  0.9058619903448725  0.5013394412183402
  0.4534358660896914  0.8477896011878793  0.7456105789142247
  0.5101392683348597  0.8142977113709055  0.8733456322872151
  0.0819930368194368  0.8874439201657329  0.5676087196843610
  0.2429648924122249  0.8365862560097924  0.8106265677090604
  0.0265731058330107  0.8313613199451461  0.8833151457290356
  0.6965144950243343  0.7008039683608412  0.5647504595837802
  0.9899722894272052  0.5969312089856289  0.0650109193749062
  0.9336469876426892  0.4352422108608358  0.8202186594625396
  0.0529975633641062  0.5526798937993777  0.1771012175397188
  0.2093535911978115  0.5031350910690137  0.4351317663099114
  0.4362549616585659  0.4434129337562389  0.8145179545733435
  0.0103008865518842  0.4067999054846108  0.9372482025737305
  0.8558422537266660  0.3723518815096861  0.1202759350148798
  0.9535168230863061  0.3455650828459068  0.2446298357874070
  0.5795756707270074  0.3864173558188712  0.0656573934933721
  0.9777033991207760  0.2561382193416746  0.6918720730607160
  0.3718665917297309  0.3720893595913195  0.1209551981198808
  0.6832056869597988  0.2719610249428914  0.6253290057013410
  0.1645772047498967  0.3525944998453152  0.1839596329906568
  0.2457549139575083  0.2470759603733573  0.7499675268011451
  0.8967769567810302  0.1958937958494748  0.9967780654296710
  0.9722316819669830  0.1673918424027230  0.1250094475732451
  0.9162464294365482  0.1167497453399366  0.4449342824526026
  0.2667504707282691  0.1538547983105864  0.1865248641145981
  0.1342962803498160  0.1338868036022652  0.3760964129178276
  0.9389866007441526  0.9396691641384157  0.3084418222813566
  0.5787240003565189  0.9770858334547249  0.1246090771232742
  0.7315348241076848  0.9298766156851437  0.3787102576625566
  0.4312732439320255  0.9453276759879449  0.3065056495770574
  0.7386812908607332  0.8371323129316472  0.8134126861150652
  0.2251035713122043  0.9311846465572610  0.3772241943421392
  0.9642876303322166  0.7584380001429509  0.1827022447261687
  0.7453089603969718  0.7520318173136082  0.2431690936734434
  0.3857728520165210  0.7849391212024440  0.0608153656559769
  0.5301338291369087  0.7347530190970253  0.3084730428751551
  0.6185298506386036  0.7154431019011566  0.4421582737133621
  0.7686011215793146  0.6691736027122690  0.6884433857590244
  0.9115859689258872  0.6098830399086511  0.9382457158392447
  0.3156318481847852  0.7198635583894456  0.3755571514016239
  0.3853442960599704  0.6973501961595761  0.5043393748930224
  0.4678000973963941  0.6776635986543621  0.6303577796138005
  0.1326131949457510  0.6296658526164221  0.8743010466444023
  0.6923439942143580  0.6015670539955069  0.0005506381103106
  0.5533419150140000  0.5569962005145799  0.1800269530201862
  0.6343152249114423  0.5299765827010881  0.3099491701894250
  0.7180467606553339  0.5110032714901253  0.4373453663245295
  0.4948836057904953  0.4938542136290487  0.5038245758271929
  0.6468531819222408  0.4524800806180411  0.7522911398061047
  0.1305216476010659  0.5322577120083463  0.3060263069974235
  0.0172791251477035  0.5080077456772178  0.5023646608219813
  0.1426224644534064  0.4517819810940698  0.7540019056325327
  0.8977736944490693  0.2850567516654399  0.5650654001057596
  0.5985486294214193  0.2910825499662884  0.5006176844849820
  0.7590999774160291  0.2495539202526949  0.7510200567468057
  0.0802992550545387  0.3880350100800506  0.0608453154249649
  0.4566063923958026  0.2557709128973081  0.6865880299485090
  0.3295553633331164  0.2302827810945416  0.8777730115621829
  0.8406816251735733  0.1458019677612839  0.3095339672560602
  0.6223457980458086  0.1366205023878035  0.3769395884327914
  0.4334328058362563  0.0223641847307501  0.8754753734487215
  0.1315598340889263  0.0346813396365635  0.8105717717811280
 
  0.00000000E+00  0.00000000E+00  0.00000000E+00
  0.00000000E+00  0.00000000E+00  0.00000000E+00
  0.00000000E+00  0.00000000E+00  0.00000000E+00
  0.00000000E+00  0.00000000E+00  0.00000000E+00
  0.00000000E+00  0.00000000E+00  0.00000000E+00
  0.00000000E+00  0.00000000E+00  0.00000000E+00
  0.00000000E+00  0.00000000E+00  0.00000000E+00
  0.00000000E+00  0.00000000E+00  0.00000000E+00
  0.00000000E+00  0.00000000E+00  0.00000000E+00
  0.00000000E+00  0.00000000E+00  0.00000000E+00
  0.00000000E+00  0.00000000E+00  0.00000000E+00
  0.00000000E+00  0.00000000E+00  0.00000000E+00
  0.00000000E+00  0.00000000E+00  0.00000000E+00
  0.00000000E+00  0.00000000E+00  0.00000000E+00
  0.00000000E+00  0.00000000E+00  0.00000000E+00
  0.00000000E+00  0.00000000E+00  0.00000000E+00
  0.00000000E+00  0.00000000E+00  0.00000000E+00
  0.00000000E+00  0.00000000E+00  0.00000000E+00
  0.00000000E+00  0.00000000E+00  0.00000000E+00
  0.00000000E+00  0.00000000E+00  0.00000000E+00
  0.00000000E+00  0.00000000E+00  0.00000000E+00
  0.00000000E+00  0.00000000E+00  0.00000000E+00
  0.00000000E+00  0.00000000E+00  0.00000000E+00
  0.00000000E+00  0.00000000E+00  0.00000000E+00
  0.00000000E+00  0.00000000E+00  0.00000000E+00
  0.00000000E+00  0.00000000E+00  0.00000000E+00
  0.00000000E+00  0.00000000E+00  0.00000000E+00
  0.00000000E+00  0.00000000E+00  0.00000000E+00
  0.00000000E+00  0.00000000E+00  0.00000000E+00
  0.00000000E+00  0.00000000E+00  0.00000000E+00
  0.00000000E+00  0.00000000E+00  0.00000000E+00
  0.00000000E+00  0.00000000E+00  0.00000000E+00
  0.00000000E+00  0.00000000E+00  0.00000000E+00
  0.00000000E+00  0.00000000E+00  0.00000000E+00
  0.00000000E+00  0.00000000E+00  0.00000000E+00
  0.00000000E+00  0.00000000E+00  0.00000000E+00
  0.00000000E+00  0.00000000E+00  0.00000000E+00
  0.00000000E+00  0.00000000E+00  0.00000000E+00
  0.00000000E+00  0.00000000E+00  0.00000000E+00
  0.00000000E+00  0.00000000E+00  0.00000000E+00
  0.00000000E+00  0.00000000E+00  0.00000000E+00
  0.00000000E+00  0.00000000E+00  0.00000000E+00
  0.00000000E+00  0.00000000E+00  0.00000000E+00
  0.00000000E+00  0.00000000E+00  0.00000000E+00
  0.00000000E+00  0.00000000E+00  0.00000000E+00
  0.00000000E+00  0.00000000E+00  0.00000000E+00
  0.00000000E+00  0.00000000E+00  0.00000000E+00
  0.00000000E+00  0.00000000E+00  0.00000000E+00
  0.00000000E+00  0.00000000E+00  0.00000000E+00
  0.00000000E+00  0.00000000E+00  0.00000000E+00
  0.00000000E+00  0.00000000E+00  0.00000000E+00
  0.00000000E+00  0.00000000E+00  0.00000000E+00
  0.00000000E+00  0.00000000E+00  0.00000000E+00
  0.00000000E+00  0.00000000E+00  0.00000000E+00
  0.00000000E+00  0.00000000E+00  0.00000000E+00
  0.00000000E+00  0.00000000E+00  0.00000000E+00
  0.00000000E+00  0.00000000E+00  0.00000000E+00
  0.00000000E+00  0.00000000E+00  0.00000000E+00
  0.00000000E+00  0.00000000E+00  0.00000000E+00
  0.00000000E+00  0.00000000E+00  0.00000000E+00
  0.00000000E+00  0.00000000E+00  0.00000000E+00
  0.00000000E+00  0.00000000E+00  0.00000000E+00
  0.00000000E+00  0.00000000E+00  0.00000000E+00
  0.00000000E+00  0.00000000E+00  0.00000000E+00
  0.00000000E+00  0.00000000E+00  0.00000000E+00
  0.00000000E+00  0.00000000E+00  0.00000000E+00
  0.00000000E+00  0.00000000E+00  0.00000000E+00
  0.00000000E+00  0.00000000E+00  0.00000000E+00
  0.00000000E+00  0.00000000E+00  0.00000000E+00
  0.00000000E+00  0.00000000E+00  0.00000000E+00
  0.00000000E+00  0.00000000E+00  0.00000000E+00
  0.00000000E+00  0.00000000E+00  0.00000000E+00
  0.00000000E+00  0.00000000E+00  0.00000000E+00
  0.00000000E+00  0.00000000E+00  0.00000000E+00
  0.00000000E+00  0.00000000E+00  0.00000000E+00
  0.00000000E+00  0.00000000E+00  0.00000000E+00
  0.00000000E+00  0.00000000E+00  0.00000000E+00
  0.00000000E+00  0.00000000E+00  0.00000000E+00
  0.00000000E+00  0.00000000E+00  0.00000000E+00
  0.00000000E+00  0.00000000E+00  0.00000000E+00
  0.00000000E+00  0.00000000E+00  0.00000000E+00
  0.00000000E+00  0.00000000E+00  0.00000000E+00
  0.00000000E+00  0.00000000E+00  0.00000000E+00
  0.00000000E+00  0.00000000E+00  0.00000000E+00
  0.00000000E+00  0.00000000E+00  0.00000000E+00
  0.00000000E+00  0.00000000E+00  0.00000000E+00
  0.00000000E+00  0.00000000E+00  0.00000000E+00
  0.00000000E+00  0.00000000E+00  0.00000000E+00
  0.00000000E+00  0.00000000E+00  0.00000000E+00
  0.00000000E+00  0.00000000E+00  0.00000000E+00
  0.00000000E+00  0.00000000E+00  0.00000000E+00
  0.00000000E+00  0.00000000E+00  0.00000000E+00
  0.00000000E+00  0.00000000E+00  0.00000000E+00
  0.00000000E+00  0.00000000E+00  0.00000000E+00
  0.00000000E+00  0.00000000E+00  0.00000000E+00
  0.00000000E+00  0.00000000E+00  0.00000000E+00
  0.00000000E+00  0.00000000E+00  0.00000000E+00
  0.00000000E+00  0.00000000E+00  0.00000000E+00
  0.00000000E+00  0.00000000E+00  0.00000000E+00
  0.00000000E+00  0.00000000E+00  0.00000000E+00
  0.00000000E+00  0.00000000E+00  0.00000000E+00
  0.00000000E+00  0.00000000E+00  0.00000000E+00
  0.00000000E+00  0.00000000E+00  0.00000000E+00
  0.00000000E+00  0.00000000E+00  0.00000000E+00
  0.00000000E+00  0.00000000E+00  0.00000000E+00
  0.00000000E+00  0.00000000E+00  0.00000000E+00
  0.00000000E+00  0.00000000E+00  0.00000000E+00
  0.00000000E+00  0.00000000E+00  0.00000000E+00
  0.00000000E+00  0.00000000E+00  0.00000000E+00
  0.00000000E+00  0.00000000E+00  0.00000000E+00
  0.00000000E+00  0.00000000E+00  0.00000000E+00
  0.00000000E+00  0.00000000E+00  0.00000000E+00
  0.00000000E+00  0.00000000E+00  0.00000000E+00
  0.00000000E+00  0.00000000E+00  0.00000000E+00
  0.00000000E+00  0.00000000E+00  0.00000000E+00
  0.00000000E+00  0.00000000E+00  0.00000000E+00
  0.00000000E+00  0.00000000E+00  0.00000000E+00
  0.00000000E+00  0.00000000E+00  0.00000000E+00
  0.00000000E+00  0.00000000E+00  0.00000000E+00
  0.00000000E+00  0.00000000E+00  0.00000000E+00
  0.00000000E+00  0.00000000E+00  0.00000000E+00
  0.00000000E+00  0.00000000E+00  0.00000000E+00
  0.00000000E+00  0.00000000E+00  0.00000000E+00
  0.00000000E+00  0.00000000E+00  0.00000000E+00
  0.00000000E+00  0.00000000E+00  0.00000000E+00
  0.00000000E+00  0.00000000E+00  0.00000000E+00
  0.00000000E+00  0.00000000E+00  0.00000000E+00
  0.00000000E+00  0.00000000E+00  0.00000000E+00
  0.00000000E+00  0.00000000E+00  0.00000000E+00
  0.00000000E+00  0.00000000E+00  0.00000000E+00
  0.00000000E+00  0.00000000E+00  0.00000000E+00
  0.00000000E+00  0.00000000E+00  0.00000000E+00
  0.00000000E+00  0.00000000E+00  0.00000000E+00
  0.00000000E+00  0.00000000E+00  0.00000000E+00
  0.00000000E+00  0.00000000E+00  0.00000000E+00
  0.00000000E+00  0.00000000E+00  0.00000000E+00
  0.00000000E+00  0.00000000E+00  0.00000000E+00
  0.00000000E+00  0.00000000E+00  0.00000000E+00
  0.00000000E+00  0.00000000E+00  0.00000000E+00
  0.00000000E+00  0.00000000E+00  0.00000000E+00
  0.00000000E+00  0.00000000E+00  0.00000000E+00
  0.00000000E+00  0.00000000E+00  0.00000000E+00
  0.00000000E+00  0.00000000E+00  0.00000000E+00
  0.00000000E+00  0.00000000E+00  0.00000000E+00
  0.00000000E+00  0.00000000E+00  0.00000000E+00
  0.00000000E+00  0.00000000E+00  0.00000000E+00
  0.00000000E+00  0.00000000E+00  0.00000000E+00
  0.00000000E+00  0.00000000E+00  0.00000000E+00
  0.00000000E+00  0.00000000E+00  0.00000000E+00
  0.00000000E+00  0.00000000E+00  0.00000000E+00
  0.00000000E+00  0.00000000E+00  0.00000000E+00
  0.00000000E+00  0.00000000E+00  0.00000000E+00
  0.00000000E+00  0.00000000E+00  0.00000000E+00
  0.00000000E+00  0.00000000E+00  0.00000000E+00
  0.00000000E+00  0.00000000E+00  0.00000000E+00
  0.00000000E+00  0.00000000E+00  0.00000000E+00
  0.00000000E+00  0.00000000E+00  0.00000000E+00
  0.00000000E+00  0.00000000E+00  0.00000000E+00
  0.00000000E+00  0.00000000E+00  0.00000000E+00
  0.00000000E+00  0.00000000E+00  0.00000000E+00
