FeNiCoCrPd_SQSbcc24_Fe64                
   1.00000000000000     
     9.1013744009414665    1.2853087410328614    9.0219623486471985
     9.1021266471118167   -9.0020451278904083   -1.2914107685045875
     9.1249308333994019    6.4339224490171878   -6.4528150488852916
   Fe   Ni   Co   Cr   Pd
    64    24    24    24    24
Direct
  0.9937187334346680  0.9945130608554602  0.0054609482685312
  0.6205417569159211  0.1281720751589967  0.0501281008507694
  0.7427959337990028  0.2424209651931605  0.0098652174081079
  0.9312270364648201  0.1747124897984890  0.0816170233075966
  0.0061384937306438  0.9953301135788006  0.2024137026615811
  0.5041475942845833  0.0039823509631522  0.2935009680828499
  0.4355745838232226  0.1899324132568070  0.1701404447873901
  0.6258987507377670  0.1302053671872420  0.2430889805393571
  0.8207797601101154  0.0634112638943257  0.3206004723898321
  0.5599062551873191  0.3197736267231239  0.1242891576139063
  0.8059394649879079  0.5659091687438753  0.0282830117604588
  0.5051521237728931  0.9956136958864579  0.4999073994485760
  0.0636043453365323  0.3252733168672691  0.2188965823663631
  0.1889895908442712  0.4482428189940194  0.1713859096003229
  0.3775289012510028  0.3813621320820998  0.2526332784688990
  0.7522304276237931  0.2510724952043286  0.4039160997972977
  0.1269623001346079  0.6289151159266845  0.0459822647304449
  0.3162323349054304  0.5634792982820184  0.1254249114854620
  0.4390549257293417  0.6836521239508733  0.0764833121335719
  0.9463048121808446  0.6812723400716439  0.1719719806424484
  0.1237541508206284  0.1172972948116007  0.5527655483770814
  0.0632269343304520  0.3147293234786158  0.4351245567961297
  0.2503911872805665  0.2546883852190781  0.4954585958792051
  0.6235849457901590  0.1344832239622355  0.6495885595296030
  0.0075033580521797  0.5021952090611628  0.3042380651457722
  0.5611455582892493  0.3223876038361060  0.5240859134608191
  0.1310152565070457  0.6296490356290438  0.2512825141764330
  0.4319961803617316  0.6835259747051163  0.2732526620350600
  0.6175277735678714  0.6300246239213575  0.3505139058688710
  0.3691707514875376  0.8773919932375094  0.1524528415555634
  0.8873879726228494  0.8754834257713109  0.2454356676643224
  0.0639815042822483  0.3123604849705577  0.6249438011155040
  0.3794599851144096  0.3778889387058461  0.6546652361036168
  0.5628061444660154  0.3184147797489183  0.7270002694949308
  0.7499562192716627  0.2573144521709063  0.8053324367517168
  0.3144020151865173  0.5705736726667451  0.5222010868345283
  0.4969927191503657  0.5058229465559999  0.5991431813054835
  0.6905432712972259  0.4369658680601270  0.6712127415575494
  0.0691714207571695  0.8100059902424483  0.3291822708592461
  0.6184374914705446  0.6333096994875748  0.5489642242194787
  0.3693205753794416  0.8693435782867663  0.3495315153381592
  0.5619616732559352  0.8189932073361647  0.4236932154513857
  0.7512328986674881  0.7522291315330083  0.4975062279870725
  0.9397914219002472  0.6912624812300756  0.5695140807144563
  0.6929527671282956  0.9424019080589380  0.3672053131163853
  0.8809713471385254  0.8744579350608667  0.4486002380722719
  0.1175027222716819  0.1187477352098344  0.9469417329623536
  0.0636941873924792  0.3065156371924217  0.8198010322025225
  0.3016805587313356  0.5644999339525558  0.7249035965156245
  0.4958914749986702  0.4953543053477844  0.8014939737597268
  0.4272438830513491  0.6819792267591399  0.6813793787401853
  0.8092409301291956  0.5623224976019401  0.8259277710614683
  0.7581324168793068  0.7422088874138487  0.7012221458702508
  0.8858941951246466  0.8679588328379254  0.6530602073545756
  0.1177671753715334  0.6264698375289012  0.8463774814934675
  0.3124990359111375  0.5617166839592848  0.9235237311181573
  0.0690906078770936  0.8072428424410130  0.7213417396573555
  0.4323884868482188  0.6824800854208557  0.8795186469079335
  0.6253353882437634  0.6196246289542692  0.9532548881105365
  0.7543502485226437  0.7506170607441397  0.9012223478886799
  0.9380618432227525  0.6874832579723050  0.9744555203181058
  0.6946257901088526  0.9338981201174431  0.7794870695969632
  0.0629086037942276  0.8089410024765802  0.9298399772327710
  0.1865437793623149  0.9279856691612479  0.8764235602405012
  0.4999465002149035  0.0054476975690874  0.0987004315185291
  0.3164805194753417  0.0581722294093887  0.2242143872276789
  0.2489879783102309  0.2528409964072025  0.0990955675321368
  0.3767299858029469  0.3748756992925814  0.0546275461249268
  0.7493722157675078  0.2446252927072179  0.2015968527261265
  0.9352213153279610  0.1838219960960495  0.2745974934258140
  0.9368263275963625  0.1821636722279976  0.4774920397058682
  0.2486629501763648  0.7452356161443162  0.0047789115690409
  0.6236264357432296  0.6257266377293311  0.1471367893160986
  0.8761786667583784  0.8695853762366553  0.0523078391415741
  0.3781771115288057  0.3805709264406368  0.4461450962885460
  0.3116572161015026  0.5666198727794121  0.3259724185966432
  0.4960882819986017  0.5041615103385694  0.4014494664356046
  0.8740001536931539  0.3777933199318372  0.5536601586216842
  0.9459972931888926  0.6904168213410089  0.3714437502200311
  0.1224855119601585  0.1215913611964133  0.7531392774611168
  0.8122155405227592  0.0583428488342891  0.9336296251476419
  0.8139889539918359  0.5629473788140261  0.6260785797474954
  0.2469419641019548  0.2531965030638852  0.8958954157224319
  0.4338310819787907  0.1943856413607062  0.9755972796796769
  0.3781501331343980  0.3734450810824635  0.8515907598527330
  0.5586187236068308  0.3153945498867421  0.9300079583225455
  0.1852854973200782  0.9327970749727956  0.4751089771871827
  0.5580682924062337  0.8133878663627322  0.6214349144649089
  0.8087639850002317  0.0559800814665010  0.1291453479669930
  0.4971367376624499  0.4982401322154563  0.0002587562381874
  0.6781315413154964  0.4399102690345475  0.0733767259734097
  0.9988897395358833  0.9968173285185810  0.3999729601094988
  0.4430119965593028  0.1910588748453758  0.3646323120986446
  0.9982077815404434  0.5045935756602158  0.1025554764239705
  0.4977488748653490  0.5036397835633595  0.1970698300556669
  0.8204399152673528  0.5646398842594129  0.2175079089909847
  0.5736675600068643  0.8035883580309957  0.0247405529481676
  0.7553635312080177  0.7430784291287418  0.0954032275927243
  0.0046379385049057  0.9922384696783096  0.5963778133955354
  0.5051317242429377  0.0064072585589840  0.7030189995489668
  0.7471147865483047  0.2538973902824496  0.5992586871014138
  0.2488291445765865  0.7524691209567499  0.2000027472620120
  0.1790792632227598  0.9352855767344495  0.0763173154181136
  0.2434274607107416  0.2543276482968261  0.7033767218169469
  0.4340302189021486  0.1957661009304439  0.7737694603316204
  0.1240241119390790  0.6302460447190148  0.4487820958089464
  0.8741271675217912  0.3799931617758059  0.7469478470035296
  0.2498163757559570  0.7503077623488411  0.4018627715665956
  0.1883579194512937  0.9311466250337920  0.2761965644541063
  0.0658115111315536  0.8141154581499220  0.5237309676871862
  0.9363702493831059  0.6882153089131218  0.7780242476002373
  0.1847505345849006  0.9311539249420099  0.6810313880633088
  0.1222769112428437  0.1256801853589788  0.1500642623728061
  0.0663939764861628  0.2922483658024868  0.0232906633405988
  0.8209738457415120  0.0597724789217559  0.5233661350118045
  0.5581955462638305  0.3166426387710739  0.3228139972892581
  0.1901318993775579  0.4457417162716967  0.3691087898783332
  0.6796204544390807  0.4419919742523991  0.4811322593854941
  0.0666067916485034  0.8101413640436705  0.1257406450991552
  0.6921697925375859  0.9358775933427903  0.1595210705123590
  0.0043839929414898  0.9951524975626292  0.8009809218054416
  0.5017912146839482  0.0004787322664327  0.9045906113222205
  0.9959641393771170  0.5071077352038400  0.5095171541632110
  0.9336212910824123  0.1890339620210468  0.8775204561433689
  0.4421965620634045  0.6870871465620947  0.4708309655168809
  0.9989434422513233  0.5064588821815028  0.6986379004375689
  0.1904420521415423  0.4336030268880495  0.7764773915178553
  0.1147051587505362  0.6353539625202769  0.6488455399908398
  0.6833315640720182  0.4334150233312968  0.8787643454191028
  0.8655336911838774  0.3641817277788075  0.9433785110866147
  0.2477298224273446  0.7559193533041244  0.5947624122668733
  0.3664176836323451  0.8628723303284898  0.5550672489531832
  0.2398695358843009  0.7464681804198127  0.8058195522607133
  0.3768771184193302  0.8678496381268814  0.7461025963966855
  0.8875908937236336  0.8677449573420108  0.8532556750186865
  0.6870881836541068  0.9338683712021855  0.9812314733011501
  0.3075126995529302  0.0678921171992858  0.0289992328306446
  0.8769539559419267  0.3712279977555331  0.1410685416108005
  0.1197956762837223  0.1258214752739708  0.3479675070970448
  0.3191171028411464  0.0554653971845674  0.4217010954597986
  0.2499019355903476  0.2583908982994567  0.2948981628386249
  0.6282859085151962  0.1285278144518196  0.4449581151964243
  0.6836954016065822  0.4415263279007591  0.2747751395778379
  0.8825332681075623  0.3695868747382022  0.3527708781966039
  0.3108264530056268  0.0587427846343794  0.6244379137992216
  0.4340050392692483  0.1945640083130727  0.5736388235512057
  0.8151671309548535  0.0589437363014256  0.7261731463616475
  0.9387568342310761  0.1899702563251378  0.6738812334744094
  0.8128956954102909  0.5643685538404827  0.4266138792013042
  0.5604854210038267  0.8147657189612860  0.2202552302058419
  0.7571040286817790  0.7541879761975552  0.2937195264371681
  0.3104125416189937  0.0649024264898620  0.8235427117806048
  0.6217611220410794  0.1288064539046822  0.8533641410159740
  0.1924301291112016  0.4397598345245093  0.5731778903083711
  0.6223804991528273  0.6202848106146847  0.7481817510556907
  0.6918485359152353  0.9342108993182545  0.5792241006939095
  0.9940223675007733  0.4937128656735978  0.9043522621632546
  0.1898659768685702  0.4355045474287965  0.9756371825290386
  0.5658518039732675  0.8136997259834654  0.8229131706297899
  0.3728612119791806  0.8692884711532295  0.9548062872162391
 
  0.00000000E+00  0.00000000E+00  0.00000000E+00
  0.00000000E+00  0.00000000E+00  0.00000000E+00
  0.00000000E+00  0.00000000E+00  0.00000000E+00
  0.00000000E+00  0.00000000E+00  0.00000000E+00
  0.00000000E+00  0.00000000E+00  0.00000000E+00
  0.00000000E+00  0.00000000E+00  0.00000000E+00
  0.00000000E+00  0.00000000E+00  0.00000000E+00
  0.00000000E+00  0.00000000E+00  0.00000000E+00
  0.00000000E+00  0.00000000E+00  0.00000000E+00
  0.00000000E+00  0.00000000E+00  0.00000000E+00
  0.00000000E+00  0.00000000E+00  0.00000000E+00
  0.00000000E+00  0.00000000E+00  0.00000000E+00
  0.00000000E+00  0.00000000E+00  0.00000000E+00
  0.00000000E+00  0.00000000E+00  0.00000000E+00
  0.00000000E+00  0.00000000E+00  0.00000000E+00
  0.00000000E+00  0.00000000E+00  0.00000000E+00
  0.00000000E+00  0.00000000E+00  0.00000000E+00
  0.00000000E+00  0.00000000E+00  0.00000000E+00
  0.00000000E+00  0.00000000E+00  0.00000000E+00
  0.00000000E+00  0.00000000E+00  0.00000000E+00
  0.00000000E+00  0.00000000E+00  0.00000000E+00
  0.00000000E+00  0.00000000E+00  0.00000000E+00
  0.00000000E+00  0.00000000E+00  0.00000000E+00
  0.00000000E+00  0.00000000E+00  0.00000000E+00
  0.00000000E+00  0.00000000E+00  0.00000000E+00
  0.00000000E+00  0.00000000E+00  0.00000000E+00
  0.00000000E+00  0.00000000E+00  0.00000000E+00
  0.00000000E+00  0.00000000E+00  0.00000000E+00
  0.00000000E+00  0.00000000E+00  0.00000000E+00
  0.00000000E+00  0.00000000E+00  0.00000000E+00
  0.00000000E+00  0.00000000E+00  0.00000000E+00
  0.00000000E+00  0.00000000E+00  0.00000000E+00
  0.00000000E+00  0.00000000E+00  0.00000000E+00
  0.00000000E+00  0.00000000E+00  0.00000000E+00
  0.00000000E+00  0.00000000E+00  0.00000000E+00
  0.00000000E+00  0.00000000E+00  0.00000000E+00
  0.00000000E+00  0.00000000E+00  0.00000000E+00
  0.00000000E+00  0.00000000E+00  0.00000000E+00
  0.00000000E+00  0.00000000E+00  0.00000000E+00
  0.00000000E+00  0.00000000E+00  0.00000000E+00
  0.00000000E+00  0.00000000E+00  0.00000000E+00
  0.00000000E+00  0.00000000E+00  0.00000000E+00
  0.00000000E+00  0.00000000E+00  0.00000000E+00
  0.00000000E+00  0.00000000E+00  0.00000000E+00
  0.00000000E+00  0.00000000E+00  0.00000000E+00
  0.00000000E+00  0.00000000E+00  0.00000000E+00
  0.00000000E+00  0.00000000E+00  0.00000000E+00
  0.00000000E+00  0.00000000E+00  0.00000000E+00
  0.00000000E+00  0.00000000E+00  0.00000000E+00
  0.00000000E+00  0.00000000E+00  0.00000000E+00
  0.00000000E+00  0.00000000E+00  0.00000000E+00
  0.00000000E+00  0.00000000E+00  0.00000000E+00
  0.00000000E+00  0.00000000E+00  0.00000000E+00
  0.00000000E+00  0.00000000E+00  0.00000000E+00
  0.00000000E+00  0.00000000E+00  0.00000000E+00
  0.00000000E+00  0.00000000E+00  0.00000000E+00
  0.00000000E+00  0.00000000E+00  0.00000000E+00
  0.00000000E+00  0.00000000E+00  0.00000000E+00
  0.00000000E+00  0.00000000E+00  0.00000000E+00
  0.00000000E+00  0.00000000E+00  0.00000000E+00
  0.00000000E+00  0.00000000E+00  0.00000000E+00
  0.00000000E+00  0.00000000E+00  0.00000000E+00
  0.00000000E+00  0.00000000E+00  0.00000000E+00
  0.00000000E+00  0.00000000E+00  0.00000000E+00
  0.00000000E+00  0.00000000E+00  0.00000000E+00
  0.00000000E+00  0.00000000E+00  0.00000000E+00
  0.00000000E+00  0.00000000E+00  0.00000000E+00
  0.00000000E+00  0.00000000E+00  0.00000000E+00
  0.00000000E+00  0.00000000E+00  0.00000000E+00
  0.00000000E+00  0.00000000E+00  0.00000000E+00
  0.00000000E+00  0.00000000E+00  0.00000000E+00
  0.00000000E+00  0.00000000E+00  0.00000000E+00
  0.00000000E+00  0.00000000E+00  0.00000000E+00
  0.00000000E+00  0.00000000E+00  0.00000000E+00
  0.00000000E+00  0.00000000E+00  0.00000000E+00
  0.00000000E+00  0.00000000E+00  0.00000000E+00
  0.00000000E+00  0.00000000E+00  0.00000000E+00
  0.00000000E+00  0.00000000E+00  0.00000000E+00
  0.00000000E+00  0.00000000E+00  0.00000000E+00
  0.00000000E+00  0.00000000E+00  0.00000000E+00
  0.00000000E+00  0.00000000E+00  0.00000000E+00
  0.00000000E+00  0.00000000E+00  0.00000000E+00
  0.00000000E+00  0.00000000E+00  0.00000000E+00
  0.00000000E+00  0.00000000E+00  0.00000000E+00
  0.00000000E+00  0.00000000E+00  0.00000000E+00
  0.00000000E+00  0.00000000E+00  0.00000000E+00
  0.00000000E+00  0.00000000E+00  0.00000000E+00
  0.00000000E+00  0.00000000E+00  0.00000000E+00
  0.00000000E+00  0.00000000E+00  0.00000000E+00
  0.00000000E+00  0.00000000E+00  0.00000000E+00
  0.00000000E+00  0.00000000E+00  0.00000000E+00
  0.00000000E+00  0.00000000E+00  0.00000000E+00
  0.00000000E+00  0.00000000E+00  0.00000000E+00
  0.00000000E+00  0.00000000E+00  0.00000000E+00
  0.00000000E+00  0.00000000E+00  0.00000000E+00
  0.00000000E+00  0.00000000E+00  0.00000000E+00
  0.00000000E+00  0.00000000E+00  0.00000000E+00
  0.00000000E+00  0.00000000E+00  0.00000000E+00
  0.00000000E+00  0.00000000E+00  0.00000000E+00
  0.00000000E+00  0.00000000E+00  0.00000000E+00
  0.00000000E+00  0.00000000E+00  0.00000000E+00
  0.00000000E+00  0.00000000E+00  0.00000000E+00
  0.00000000E+00  0.00000000E+00  0.00000000E+00
  0.00000000E+00  0.00000000E+00  0.00000000E+00
  0.00000000E+00  0.00000000E+00  0.00000000E+00
  0.00000000E+00  0.00000000E+00  0.00000000E+00
  0.00000000E+00  0.00000000E+00  0.00000000E+00
  0.00000000E+00  0.00000000E+00  0.00000000E+00
  0.00000000E+00  0.00000000E+00  0.00000000E+00
  0.00000000E+00  0.00000000E+00  0.00000000E+00
  0.00000000E+00  0.00000000E+00  0.00000000E+00
  0.00000000E+00  0.00000000E+00  0.00000000E+00
  0.00000000E+00  0.00000000E+00  0.00000000E+00
  0.00000000E+00  0.00000000E+00  0.00000000E+00
  0.00000000E+00  0.00000000E+00  0.00000000E+00
  0.00000000E+00  0.00000000E+00  0.00000000E+00
  0.00000000E+00  0.00000000E+00  0.00000000E+00
  0.00000000E+00  0.00000000E+00  0.00000000E+00
  0.00000000E+00  0.00000000E+00  0.00000000E+00
  0.00000000E+00  0.00000000E+00  0.00000000E+00
  0.00000000E+00  0.00000000E+00  0.00000000E+00
  0.00000000E+00  0.00000000E+00  0.00000000E+00
  0.00000000E+00  0.00000000E+00  0.00000000E+00
  0.00000000E+00  0.00000000E+00  0.00000000E+00
  0.00000000E+00  0.00000000E+00  0.00000000E+00
  0.00000000E+00  0.00000000E+00  0.00000000E+00
  0.00000000E+00  0.00000000E+00  0.00000000E+00
  0.00000000E+00  0.00000000E+00  0.00000000E+00
  0.00000000E+00  0.00000000E+00  0.00000000E+00
  0.00000000E+00  0.00000000E+00  0.00000000E+00
  0.00000000E+00  0.00000000E+00  0.00000000E+00
  0.00000000E+00  0.00000000E+00  0.00000000E+00
  0.00000000E+00  0.00000000E+00  0.00000000E+00
  0.00000000E+00  0.00000000E+00  0.00000000E+00
  0.00000000E+00  0.00000000E+00  0.00000000E+00
  0.00000000E+00  0.00000000E+00  0.00000000E+00
  0.00000000E+00  0.00000000E+00  0.00000000E+00
  0.00000000E+00  0.00000000E+00  0.00000000E+00
  0.00000000E+00  0.00000000E+00  0.00000000E+00
  0.00000000E+00  0.00000000E+00  0.00000000E+00
  0.00000000E+00  0.00000000E+00  0.00000000E+00
  0.00000000E+00  0.00000000E+00  0.00000000E+00
  0.00000000E+00  0.00000000E+00  0.00000000E+00
  0.00000000E+00  0.00000000E+00  0.00000000E+00
  0.00000000E+00  0.00000000E+00  0.00000000E+00
  0.00000000E+00  0.00000000E+00  0.00000000E+00
  0.00000000E+00  0.00000000E+00  0.00000000E+00
  0.00000000E+00  0.00000000E+00  0.00000000E+00
  0.00000000E+00  0.00000000E+00  0.00000000E+00
  0.00000000E+00  0.00000000E+00  0.00000000E+00
  0.00000000E+00  0.00000000E+00  0.00000000E+00
  0.00000000E+00  0.00000000E+00  0.00000000E+00
  0.00000000E+00  0.00000000E+00  0.00000000E+00
  0.00000000E+00  0.00000000E+00  0.00000000E+00
  0.00000000E+00  0.00000000E+00  0.00000000E+00
  0.00000000E+00  0.00000000E+00  0.00000000E+00
  0.00000000E+00  0.00000000E+00  0.00000000E+00
  0.00000000E+00  0.00000000E+00  0.00000000E+00
  0.00000000E+00  0.00000000E+00  0.00000000E+00
  0.00000000E+00  0.00000000E+00  0.00000000E+00
