FeNiCoCrPd_SQSbcc24_Ni64                
   3.00000000000000     
     2.1430076014667376    0.4781895865809385    3.2378643829471443
     2.1430929075534473   -3.8693031396428026   -0.3772167379500114
     2.1366265913569968    2.8179484786107638   -2.3779184908622986
   Fe   Ni   Co   Cr   Pd
    24    64    24    24    24
Direct
  0.3007068627462317  0.0483919169320856  0.0277269047343563
  0.8647728859316730  0.3647532292038036  0.1761482596003614
  0.1293833454250355  0.1249579039177569  0.3435228537924562
  0.3143128908471551  0.0574408451188708  0.4393812012910731
  0.2541315545857175  0.2519783374484783  0.2943422657199112
  0.6071386159237697  0.1101188296676646  0.4811235279772256
  0.6839777489467710  0.4398659164762697  0.2816116462524829
  0.8607681637601827  0.3679211150336642  0.3814721420362636
  0.3117931832973266  0.0612147897771030  0.6394159395677010
  0.4330871745846678  0.1887823767603914  0.5881490441864008
  0.8231034615513475  0.0779455251512230  0.6900169426146278
  0.9453687783870599  0.2026981250717165  0.6483435080413144
  0.8055981483360352  0.5627206188476318  0.4362965855057694
  0.5757124589096029  0.8282701506399833  0.1942681314646369
  0.7563902211672896  0.7599822572526610  0.2933806087883531
  0.3113590348021649  0.0433030979346804  0.8277808010415018
  0.6074421650444942  0.1068032112310491  0.8708167084759534
  0.1957732936632787  0.4581208677282422  0.5513076974287274
  0.6269573822780230  0.6309275836162181  0.7431148804913665
  0.7042631369362219  0.9515874013467837  0.5392652548949952
  0.9840801052562960  0.4856784797098879  0.9316137303143058
  0.1953333635710636  0.4621459042096034  0.9455591999507909
  0.5698103160943131  0.8273575568837856  0.7933396427281226
  0.3643453323208251  0.8569533259442160  0.9767334302338958
  0.0104253848644359  0.0019571201927853  0.9883238396105338
  0.6201064970270052  0.1079219993478974  0.0770795281913530
  0.7390335068377211  0.2380419721817792  0.0341521958920433
  0.9535013829703192  0.2020660113156857  0.0410979735272863
  0.0091219621450588  0.0011478110585147  0.1914096470940593
  0.4890708382843879  0.9837590048868028  0.3372383198471222
  0.4392141498167828  0.1852377911423967  0.1933346923657639
  0.6107835679312714  0.1070525615112978  0.2871919788413889
  0.8281496358047463  0.0697840934514444  0.2907051353005284
  0.5589295094223672  0.3136373815862447  0.1432270061637654
  0.8120150749775620  0.5541370898665879  0.0333402117094520
  0.4825693400649657  0.9871109082340694  0.5312981822801027
  0.0764176920771198  0.3360029184896023  0.1974135147153375
  0.1926446353553754  0.4570176202327181  0.1438097611714940
  0.3788517760130843  0.3771761810024425  0.2427858249758439
  0.7312220184895198  0.2317985260450536  0.4332250416546969
  0.1054520571787075  0.6095185265007912  0.0834263893600342
  0.3273116959166417  0.5839368639688035  0.0919613394299684
  0.4556698587310749  0.7042334831080687  0.0426329906816677
  0.9266839936788130  0.6841062515246857  0.1805043114270397
  0.1341251382893189  0.1310302119922537  0.5390772482037604
  0.0835467771920687  0.3327600508330637  0.3973739734083739
  0.2524078461661400  0.2522833581000819  0.4904372622011837
  0.6088757458245448  0.1075157271885983  0.6764359321335944
  0.9828748943105996  0.4849925926096295  0.3309879371011840
  0.5624824061565649  0.3074731647888856  0.5402936342507610
  0.1058534213070201  0.6132814133160424  0.2766528148490414
  0.4540819348733831  0.7076725805330653  0.2444964701978873
  0.6334305576156527  0.6360394018264822  0.3439729855103791
  0.3605749891986784  0.8553903391883010  0.1806560970326913
  0.8786824413517881  0.8785925238397373  0.2428467917751415
  0.0818543506072253  0.3286473302078144  0.5970715303820067
  0.3786745718870121  0.3824772284357976  0.6400102050434126
  0.5608128171813846  0.3060673567871935  0.7307161054532214
  0.7351598721860878  0.2336674983397966  0.8249890643910335
  0.3217595506260684  0.5823100705992805  0.4980618234312770
  0.5089835698289633  0.5075596134858478  0.5962142562009055
  0.6796562509949995  0.4319606943368828  0.6906525585290549
  0.0575592126016118  0.8087436065078664  0.3315242322111548
  0.6287567625707596  0.6322229257749535  0.5420737956646277
  0.3629083984992706  0.8603054839043014  0.3793216362807855
  0.5788691068384000  0.8279087150817247  0.3908094184153986
  0.7553575213519952  0.7563974836572678  0.4903083363879186
  0.9365088182490688  0.6855821337334043  0.5882807363211212
  0.7025643492549207  0.9505676443202533  0.3420272866950338
  0.8789805383603119  0.8832482629916417  0.4406036741796884
  0.1231673126517659  0.1263722849233704  0.9372630541653618
  0.0711612990753962  0.3315664080174048  0.7951318145017074
  0.3253348627728949  0.5791866209902300  0.6931383242929553
  0.5081477979898081  0.5068521108763528  0.7894889519213968
  0.4495907141166481  0.6990848570700178  0.6452337496558134
  0.8098447911324567  0.5565403456265097  0.8399519052607014
  0.7577655369600886  0.7595047984391187  0.6957304395177510
  0.8780554143959338  0.8818162819357149  0.6356343375725069
  0.1071292521099316  0.6117048566120754  0.8832377293627396
  0.3270475490877930  0.5803669779678050  0.8906741905218548
  0.0602859191609010  0.8029170149484720  0.7322383455778040
  0.4515225558464918  0.7009016024761618  0.8443802361028324
  0.6312118887587765  0.6294641205905007  0.9369715480306908
  0.7527933506969779  0.7505290474777067  0.8864434865824413
  0.9327119471575926  0.6778512476063154  0.9831682685524861
  0.7041577403489260  0.9520532192156262  0.7432427914351003
  0.0593875829695228  0.8052621951634529  0.9277357403039347
  0.1838960482011372  0.9253083555778495  0.8815725855549508
  0.8305297057164934  0.0762192855221359  0.0942451833925910
  0.5058230365082041  0.5138028400322527  0.9901365862983803
  0.6877522278907984  0.4318442556160456  0.0879347713033003
  0.0034835910985816  0.9998479949798385  0.3841849784783072
  0.4343772655681163  0.1787828321788787  0.3908047708799613
  0.9834057638146264  0.4902117058593776  0.1334605887585234
  0.5109784489057693  0.5079808533483641  0.1887084631515155
  0.8104268589013813  0.5516257462143939  0.2324278543601747
  0.5782919220636256  0.8189975279838262  0.9896200876483041
  0.7537740387298999  0.7584708942699115  0.0875399003794563
  0.9975283750987497  0.0043753620135209  0.5854142669393266
  0.4859118149495172  0.9869706974169351  0.7324923395697713
  0.7339867546664721  0.2303266002758051  0.6324680843469098
  0.2343990801657910  0.7402856043620188  0.2372253935622303
  0.1792198397277013  0.9329306971218170  0.0832420847099489
  0.2567192749689305  0.2536460902125643  0.6819151050642224
  0.4338994921183044  0.1797426410961478  0.7786460144323190
  0.1119283802487443  0.6090192174377407  0.4848922425137817
  0.8597858366945939  0.3625485410542509  0.7858785794018056
  0.2272184138830768  0.7325294646133782  0.4297384485375015
  0.1829361386508033  0.9268714790346149  0.2816771330311788
  0.0579050305292787  0.8077939535858002  0.5409775870662116
  0.9373001571657021  0.6845877784783183  0.7892751976857937
  0.1828445525655066  0.9229600196555406  0.6858456355952491
  0.1268658889543251  0.1233306475761224  0.1349773778942198
  0.0686588542812021  0.3357559129580136  0.9990862677968197
  0.8216134397405758  0.0746986604471669  0.4917655252675783
  0.5569169932024493  0.3022833041104711  0.3407493341775030
  0.1922674511942863  0.4614427680903895  0.3457564027646335
  0.6827781760614011  0.4308316903148283  0.4804764799738364
  0.0581830179033991  0.8047597610294195  0.1371815025033420
  0.7085762473293706  0.9517078850278003  0.1427968360147440
  0.0089609441810241  0.9937080045883724  0.7875854987320985
  0.4990907001707040  0.9794157165886522  0.9287937983253612
  0.9911239965436460  0.4866620183584830  0.5291070988640516
  0.9452910563213219  0.2077194581912916  0.8410139568412254
  0.4438863665453329  0.7101469609114260  0.4462924933926239
  0.9951877039125930  0.4859268914958287  0.7335265749289483
  0.1967000810646386  0.4598048678438982  0.7422159444496312
  0.1048247444746573  0.6093472856137706  0.6827079912623473
  0.6880149830991740  0.4344137723952294  0.8854648413362647
  0.8648269811186671  0.3567934464718003  0.9787368769035312
  0.2322141001806052  0.7310101532689396  0.6251658785647939
  0.3582690753679317  0.8548420207713869  0.5858859181304000
  0.2320964522226661  0.7293308125540713  0.8209594099393922
  0.3585439757838175  0.8537816790912771  0.7788380326064531
  0.8831034448583114  0.8757080294973347  0.8321222364231780
  0.6987616019402558  0.9467520115972577  0.9444224300454229
  0.4908924041570637  0.9836645762617933  0.1283585320985783
  0.3070480212656347  0.0561238056146934  0.2369494391816340
  0.2499903001712275  0.2524129623073924  0.0963733475996033
  0.3787393882945091  0.3899971190719703  0.0475229135464252
  0.7325305690684878  0.2361622306897338  0.2333834391691563
  0.9574977721578247  0.2035957104906056  0.2422532882429762
  0.9530846557040775  0.1992359398069103  0.4463897083284419
  0.2341889373822760  0.7362838923961132  0.0294733876599918
  0.6350466350531268  0.6308394712581128  0.1406600457557445
  0.8847394068887775  0.8768807119351516  0.0384133960564928
  0.3746001770436962  0.3798805268877611  0.4435196608073382
  0.3237430356505911  0.5786286775327373  0.2896613202948614
  0.5079709852613128  0.5082562034835356  0.3916851409642882
  0.8585243049654996  0.3622337840020224  0.5852738495611022
  0.9333605496129213  0.6839936261059305  0.3852049843087412
  0.1251369082449317  0.1249806171605563  0.7339067736416530
  0.8279801995052273  0.0777820846784405  0.8952426205744641
  0.8086153149196434  0.5650485390137491  0.6407676876078118
  0.2487839133273685  0.2547205572454792  0.8864894618611240
  0.4356878962247609  0.1741454704718449  0.9856220209003900
  0.3779704044582946  0.3838030574154637  0.8351045173895645
  0.5652440742840706  0.3098860558202796  0.9356088479121593
  0.1822840263273087  0.9321262270568796  0.4868141513184275
  0.5778202342380639  0.8292290726899076  0.5949193644381437
 
  0.00000000E+00  0.00000000E+00  0.00000000E+00
  0.00000000E+00  0.00000000E+00  0.00000000E+00
  0.00000000E+00  0.00000000E+00  0.00000000E+00
  0.00000000E+00  0.00000000E+00  0.00000000E+00
  0.00000000E+00  0.00000000E+00  0.00000000E+00
  0.00000000E+00  0.00000000E+00  0.00000000E+00
  0.00000000E+00  0.00000000E+00  0.00000000E+00
  0.00000000E+00  0.00000000E+00  0.00000000E+00
  0.00000000E+00  0.00000000E+00  0.00000000E+00
  0.00000000E+00  0.00000000E+00  0.00000000E+00
  0.00000000E+00  0.00000000E+00  0.00000000E+00
  0.00000000E+00  0.00000000E+00  0.00000000E+00
  0.00000000E+00  0.00000000E+00  0.00000000E+00
  0.00000000E+00  0.00000000E+00  0.00000000E+00
  0.00000000E+00  0.00000000E+00  0.00000000E+00
  0.00000000E+00  0.00000000E+00  0.00000000E+00
  0.00000000E+00  0.00000000E+00  0.00000000E+00
  0.00000000E+00  0.00000000E+00  0.00000000E+00
  0.00000000E+00  0.00000000E+00  0.00000000E+00
  0.00000000E+00  0.00000000E+00  0.00000000E+00
  0.00000000E+00  0.00000000E+00  0.00000000E+00
  0.00000000E+00  0.00000000E+00  0.00000000E+00
  0.00000000E+00  0.00000000E+00  0.00000000E+00
  0.00000000E+00  0.00000000E+00  0.00000000E+00
  0.00000000E+00  0.00000000E+00  0.00000000E+00
  0.00000000E+00  0.00000000E+00  0.00000000E+00
  0.00000000E+00  0.00000000E+00  0.00000000E+00
  0.00000000E+00  0.00000000E+00  0.00000000E+00
  0.00000000E+00  0.00000000E+00  0.00000000E+00
  0.00000000E+00  0.00000000E+00  0.00000000E+00
  0.00000000E+00  0.00000000E+00  0.00000000E+00
  0.00000000E+00  0.00000000E+00  0.00000000E+00
  0.00000000E+00  0.00000000E+00  0.00000000E+00
  0.00000000E+00  0.00000000E+00  0.00000000E+00
  0.00000000E+00  0.00000000E+00  0.00000000E+00
  0.00000000E+00  0.00000000E+00  0.00000000E+00
  0.00000000E+00  0.00000000E+00  0.00000000E+00
  0.00000000E+00  0.00000000E+00  0.00000000E+00
  0.00000000E+00  0.00000000E+00  0.00000000E+00
  0.00000000E+00  0.00000000E+00  0.00000000E+00
  0.00000000E+00  0.00000000E+00  0.00000000E+00
  0.00000000E+00  0.00000000E+00  0.00000000E+00
  0.00000000E+00  0.00000000E+00  0.00000000E+00
  0.00000000E+00  0.00000000E+00  0.00000000E+00
  0.00000000E+00  0.00000000E+00  0.00000000E+00
  0.00000000E+00  0.00000000E+00  0.00000000E+00
  0.00000000E+00  0.00000000E+00  0.00000000E+00
  0.00000000E+00  0.00000000E+00  0.00000000E+00
  0.00000000E+00  0.00000000E+00  0.00000000E+00
  0.00000000E+00  0.00000000E+00  0.00000000E+00
  0.00000000E+00  0.00000000E+00  0.00000000E+00
  0.00000000E+00  0.00000000E+00  0.00000000E+00
  0.00000000E+00  0.00000000E+00  0.00000000E+00
  0.00000000E+00  0.00000000E+00  0.00000000E+00
  0.00000000E+00  0.00000000E+00  0.00000000E+00
  0.00000000E+00  0.00000000E+00  0.00000000E+00
  0.00000000E+00  0.00000000E+00  0.00000000E+00
  0.00000000E+00  0.00000000E+00  0.00000000E+00
  0.00000000E+00  0.00000000E+00  0.00000000E+00
  0.00000000E+00  0.00000000E+00  0.00000000E+00
  0.00000000E+00  0.00000000E+00  0.00000000E+00
  0.00000000E+00  0.00000000E+00  0.00000000E+00
  0.00000000E+00  0.00000000E+00  0.00000000E+00
  0.00000000E+00  0.00000000E+00  0.00000000E+00
  0.00000000E+00  0.00000000E+00  0.00000000E+00
  0.00000000E+00  0.00000000E+00  0.00000000E+00
  0.00000000E+00  0.00000000E+00  0.00000000E+00
  0.00000000E+00  0.00000000E+00  0.00000000E+00
  0.00000000E+00  0.00000000E+00  0.00000000E+00
  0.00000000E+00  0.00000000E+00  0.00000000E+00
  0.00000000E+00  0.00000000E+00  0.00000000E+00
  0.00000000E+00  0.00000000E+00  0.00000000E+00
  0.00000000E+00  0.00000000E+00  0.00000000E+00
  0.00000000E+00  0.00000000E+00  0.00000000E+00
  0.00000000E+00  0.00000000E+00  0.00000000E+00
  0.00000000E+00  0.00000000E+00  0.00000000E+00
  0.00000000E+00  0.00000000E+00  0.00000000E+00
  0.00000000E+00  0.00000000E+00  0.00000000E+00
  0.00000000E+00  0.00000000E+00  0.00000000E+00
  0.00000000E+00  0.00000000E+00  0.00000000E+00
  0.00000000E+00  0.00000000E+00  0.00000000E+00
  0.00000000E+00  0.00000000E+00  0.00000000E+00
  0.00000000E+00  0.00000000E+00  0.00000000E+00
  0.00000000E+00  0.00000000E+00  0.00000000E+00
  0.00000000E+00  0.00000000E+00  0.00000000E+00
  0.00000000E+00  0.00000000E+00  0.00000000E+00
  0.00000000E+00  0.00000000E+00  0.00000000E+00
  0.00000000E+00  0.00000000E+00  0.00000000E+00
  0.00000000E+00  0.00000000E+00  0.00000000E+00
  0.00000000E+00  0.00000000E+00  0.00000000E+00
  0.00000000E+00  0.00000000E+00  0.00000000E+00
  0.00000000E+00  0.00000000E+00  0.00000000E+00
  0.00000000E+00  0.00000000E+00  0.00000000E+00
  0.00000000E+00  0.00000000E+00  0.00000000E+00
  0.00000000E+00  0.00000000E+00  0.00000000E+00
  0.00000000E+00  0.00000000E+00  0.00000000E+00
  0.00000000E+00  0.00000000E+00  0.00000000E+00
  0.00000000E+00  0.00000000E+00  0.00000000E+00
  0.00000000E+00  0.00000000E+00  0.00000000E+00
  0.00000000E+00  0.00000000E+00  0.00000000E+00
  0.00000000E+00  0.00000000E+00  0.00000000E+00
  0.00000000E+00  0.00000000E+00  0.00000000E+00
  0.00000000E+00  0.00000000E+00  0.00000000E+00
  0.00000000E+00  0.00000000E+00  0.00000000E+00
  0.00000000E+00  0.00000000E+00  0.00000000E+00
  0.00000000E+00  0.00000000E+00  0.00000000E+00
  0.00000000E+00  0.00000000E+00  0.00000000E+00
  0.00000000E+00  0.00000000E+00  0.00000000E+00
  0.00000000E+00  0.00000000E+00  0.00000000E+00
  0.00000000E+00  0.00000000E+00  0.00000000E+00
  0.00000000E+00  0.00000000E+00  0.00000000E+00
  0.00000000E+00  0.00000000E+00  0.00000000E+00
  0.00000000E+00  0.00000000E+00  0.00000000E+00
  0.00000000E+00  0.00000000E+00  0.00000000E+00
  0.00000000E+00  0.00000000E+00  0.00000000E+00
  0.00000000E+00  0.00000000E+00  0.00000000E+00
  0.00000000E+00  0.00000000E+00  0.00000000E+00
  0.00000000E+00  0.00000000E+00  0.00000000E+00
  0.00000000E+00  0.00000000E+00  0.00000000E+00
  0.00000000E+00  0.00000000E+00  0.00000000E+00
  0.00000000E+00  0.00000000E+00  0.00000000E+00
  0.00000000E+00  0.00000000E+00  0.00000000E+00
  0.00000000E+00  0.00000000E+00  0.00000000E+00
  0.00000000E+00  0.00000000E+00  0.00000000E+00
  0.00000000E+00  0.00000000E+00  0.00000000E+00
  0.00000000E+00  0.00000000E+00  0.00000000E+00
  0.00000000E+00  0.00000000E+00  0.00000000E+00
  0.00000000E+00  0.00000000E+00  0.00000000E+00
  0.00000000E+00  0.00000000E+00  0.00000000E+00
  0.00000000E+00  0.00000000E+00  0.00000000E+00
  0.00000000E+00  0.00000000E+00  0.00000000E+00
  0.00000000E+00  0.00000000E+00  0.00000000E+00
  0.00000000E+00  0.00000000E+00  0.00000000E+00
  0.00000000E+00  0.00000000E+00  0.00000000E+00
  0.00000000E+00  0.00000000E+00  0.00000000E+00
  0.00000000E+00  0.00000000E+00  0.00000000E+00
  0.00000000E+00  0.00000000E+00  0.00000000E+00
  0.00000000E+00  0.00000000E+00  0.00000000E+00
  0.00000000E+00  0.00000000E+00  0.00000000E+00
  0.00000000E+00  0.00000000E+00  0.00000000E+00
  0.00000000E+00  0.00000000E+00  0.00000000E+00
  0.00000000E+00  0.00000000E+00  0.00000000E+00
  0.00000000E+00  0.00000000E+00  0.00000000E+00
  0.00000000E+00  0.00000000E+00  0.00000000E+00
  0.00000000E+00  0.00000000E+00  0.00000000E+00
  0.00000000E+00  0.00000000E+00  0.00000000E+00
  0.00000000E+00  0.00000000E+00  0.00000000E+00
  0.00000000E+00  0.00000000E+00  0.00000000E+00
  0.00000000E+00  0.00000000E+00  0.00000000E+00
  0.00000000E+00  0.00000000E+00  0.00000000E+00
  0.00000000E+00  0.00000000E+00  0.00000000E+00
  0.00000000E+00  0.00000000E+00  0.00000000E+00
  0.00000000E+00  0.00000000E+00  0.00000000E+00
  0.00000000E+00  0.00000000E+00  0.00000000E+00
  0.00000000E+00  0.00000000E+00  0.00000000E+00
  0.00000000E+00  0.00000000E+00  0.00000000E+00
  0.00000000E+00  0.00000000E+00  0.00000000E+00
  0.00000000E+00  0.00000000E+00  0.00000000E+00
  0.00000000E+00  0.00000000E+00  0.00000000E+00
  0.00000000E+00  0.00000000E+00  0.00000000E+00
