FeNiCoCrMn_SQSbcc24_Co64                
   3.00000000000000     
     2.0803461771775695    0.3704927890640883    3.4269825158188216
     2.0815635631011862   -3.4251968993234119   -0.3729762524732785
     2.0864317492572284    2.5499783658952184   -2.5507515585948175
   Fe   Ni   Co   Cr   Mn
    24    24    64    24    24
Direct
  0.3191749822869803  0.0736973061461514  0.0021034038638289
  0.8664579241863839  0.3632382462154801  0.1708733391026422
  0.1139729465965046  0.1157642427455026  0.3698769716255638
  0.3254971247498996  0.0692533405545411  0.4060627601749914
  0.2363029370611653  0.2382934803948676  0.3210446963046357
  0.6159141300428448  0.1154197236524445  0.4721906588862604
  0.6961207377652491  0.4472741398317215  0.2520644248566034
  0.8641003473510721  0.3642429015297232  0.3689544373941167
  0.3229982787747201  0.0697532853340591  0.6064168310964808
  0.4457749889347641  0.1990498138923415  0.5577738986382538
  0.8212755571750240  0.0748104515389447  0.7049188309791057
  0.9513720985582739  0.1983299895198178  0.6533753584186522
  0.8246574538052617  0.5731626055823970  0.4052332938402527
  0.5698718859638677  0.8248881066496372  0.2054087943326377
  0.7391821930384599  0.7418006028915862  0.3223551920866649
  0.3283849437326701  0.0647681851401337  0.8034546326441154
  0.6162145013138773  0.1118103482418257  0.8710711494843870
  0.2001663585426289  0.4450220739884532  0.5551781080711812
  0.6146775254099572  0.6139969224244068  0.7708676512784366
  0.6993587193910188  0.9462347902195529  0.5549285820109962
  0.9894219087041888  0.4910293500621595  0.9200506323629347
  0.1998513373016844  0.4480285577640596  0.9541342015721912
  0.5715301290171326  0.8264578395482725  0.8053892539679057
  0.3674555297525932  0.8639513021571812  0.9707608808289657
  0.4897823981502401  0.9892228997447521  0.1214302782322337
  0.3226001846596421  0.0735702869773030  0.2039389149717815
  0.2396152435597418  0.2415448479166896  0.1226935082710210
  0.3653378891747236  0.3643292559791972  0.0724739149105166
  0.7395192803714004  0.2391955626780285  0.2205612426845678
  0.9476332318138632  0.1963310136348564  0.2531608197920015
  0.9467996651012792  0.1986212335894864  0.4535009922455193
  0.2400293404000206  0.7384782955112000  0.0212169036403651
  0.6147770290612229  0.6154900347207899  0.1718485491532785
  0.8625452776692317  0.8648640114165453  0.0700978082983665
  0.3657845341658975  0.3653592057566588  0.4714630943191705
  0.3201967156587369  0.5734718526923867  0.3063185591300888
  0.4898791459145889  0.4868618499393356  0.4211553536407052
  0.8642283981106694  0.3656608014746557  0.5699938860159013
  0.9474601768510202  0.6979312050119976  0.3523922972011199
  0.1159769865339429  0.1155369691728174  0.7718016544676646
  0.8246214927820704  0.0713221909207348  0.9033202701927172
  0.8244700781904202  0.5731627561531479  0.6072568828375744
  0.2403580859592539  0.2397764554822737  0.9185094175182514
  0.4492390005847211  0.1976468728799300  0.9558794995141711
  0.3658354198265423  0.3656539527320899  0.8718114050600330
  0.5750823043252998  0.3228427143402205  0.9037023198113054
  0.1982503731410202  0.9459996663590636  0.4542219889078641
  0.5728636110990204  0.8228542502374288  0.6053825704515183
  0.9899329666030590  0.9887084004227108  0.0191165544457873
  0.6139844301386553  0.1130556075499195  0.0718910933367622
  0.7380349222272670  0.2408009921594474  0.0204413160378351
  0.9472520161842602  0.1971403430425883  0.0521479242329472
  0.9945359578791504  0.9864154730378982  0.2191996846490439
  0.4896487839658411  0.9883050775462937  0.3211895704932184
  0.4486213817403830  0.1977504748142850  0.1546893084797493
  0.6151089635853033  0.1145060057724842  0.2722439026107448
  0.8237073621409021  0.0721740318753898  0.3047307716606315
  0.5761216442492059  0.3200721648911100  0.1047008231767213
  0.8262830494471677  0.5711340745832474  0.0031541900114566
  0.4927557728780269  0.9891424220475782  0.5203127599644738
  0.0705521272939275  0.3247382496508460  0.2027683405007247
  0.1961805320289038  0.4495453102436129  0.1540806081397916
  0.3646949515437066  0.3626036619867412  0.2696939645555282
  0.7377074716044811  0.2404173554772399  0.4192453070317181
  0.1125856748104685  0.6128010421378106  0.0701009254957603
  0.3222818048410750  0.5738542846567006  0.1045124985296982
  0.4456847701019618  0.6967693906420458  0.0538749542468338
  0.9506099191834594  0.6985651789127305  0.1547631581241264
  0.1141558853202488  0.1147275254577087  0.5694140817432902
  0.0719454985568876  0.3256446351810183  0.4043724693565990
  0.2399612075747326  0.2415772927665673  0.5211597442266257
  0.6147937835500700  0.1168142326839818  0.6710281754524245
  0.9891823310490093  0.4886836976828732  0.3183558689198142
  0.5739285807348804  0.3209788183349049  0.5047715792991609
  0.1136927375185049  0.6146023907865796  0.2679705582705490
  0.4475463454607778  0.6984209916742261  0.2547750183515090
  0.6151453989976107  0.6139908557724700  0.3720304301808793
  0.3648042169809763  0.8656858105790752  0.1698348272491383
  0.8639081324389265  0.8656109213772668  0.2715628099918660
  0.0722559516013829  0.3249446964904939  0.6035709979594949
  0.3661698162293119  0.3662132002639916  0.6709781258470099
  0.5739046082599690  0.3251366093350716  0.7042988675623751
  0.7386327996071567  0.2370623825052555  0.8209467001915040
  0.3201596107962716  0.5758611511790932  0.5062628934267822
  0.4910039068461415  0.4901185409419341  0.6219662045534083
  0.6969983920237224  0.4497681153481888  0.6532366225798882
  0.0727186220608541  0.8224221956222993  0.3033028079227792
  0.6144876244723931  0.6160523159978754  0.5711197484192507
  0.3679380907677330  0.8621724019542779  0.3720336855313534
  0.5730124884384372  0.8234073993830642  0.4058866634834142
  0.7411226266000995  0.7392154970778059  0.5216676595618583
  0.9490431052226388  0.6992402849951092  0.5555553599185745
  0.6993034975866078  0.9480043088072876  0.3555010789776445
  0.8639785974164758  0.8641424341110856  0.4716122846898602
  0.1111734109141982  0.1162663366924712  0.9688396928755737
  0.0706979143987246  0.3237998459701038  0.8052938865769735
  0.3238241972725703  0.5752452960454274  0.7042523350307905
  0.4877160111132474  0.4903675231367621  0.8195099323936809
  0.4482258401500937  0.6987358116712564  0.6537376711507289
  0.8223345993088617  0.5764830742802739  0.8068855958195722
  0.7392999195394581  0.7407088459883888  0.7207438994490981
  0.8662427986875630  0.8655352784608693  0.6718921778222681
  0.1142002636123378  0.6151672744745288  0.8728237477011771
  0.3230864446399967  0.5755387202616545  0.9045404379224523
  0.0731442377909049  0.8230206139509896  0.7026656316667382
  0.4474267450127554  0.6982237397999220  0.8548518064339102
  0.6143344725136254  0.6134887582390670  0.9709451281431024
  0.7387377929641727  0.7398174987760332  0.9209527770021966
  0.9467544423715140  0.6975837239244196  0.9545426505672753
  0.6996754809742662  0.9479566080751837  0.7547970135795002
  0.0727072501059304  0.8226255843514700  0.9038885750401554
  0.1985082823053302  0.9460919422715208  0.8521662303063304
  0.1097413636358184  0.1177199652458129  0.1655387843633457
  0.0743104671909090  0.3234522885473271  0.0050074379161945
  0.8235787164528824  0.0695038133122432  0.4995010698804557
  0.5736714984205846  0.3218326080069816  0.3008097822984268
  0.1952898543854640  0.4501774247098994  0.3556556906468153
  0.6981550932649646  0.4508821453347339  0.4552793991772432
  0.0693051226118775  0.8237301971136007  0.0994997625068531
  0.6973766970899477  0.9481162556596272  0.1585347704793138
  0.9960592933134187  0.9838508330059623  0.8200998409900806
  0.4867845011803887  0.9941142879977419  0.9235884765529097
  0.9911848943363649  0.4914284806832475  0.5208320068027809
  0.9423520583429250  0.1979469441032041  0.8464965769933758
  0.4484144946980453  0.6952532456043039  0.4549787614100810
  0.9897011995108935  0.4880079203042309  0.7234148478009046
  0.1999720224249058  0.4481220597183077  0.7539215051086329
  0.1131254905219210  0.6148655119338476  0.6700811386957441
  0.6979666178641240  0.4488005237742054  0.8539576059714286
  0.8656552077235534  0.3655166652379900  0.9755317339593034
  0.2449501082569285  0.7377287351330523  0.6190992019904115
  0.3657662320680567  0.8676568596485853  0.5671093584703253
  0.2363273764216072  0.7389758088720479  0.8223175010687561
  0.3675808797098770  0.8626000819281117  0.7700936012291910
  0.8629838089121319  0.8604154340034137  0.8697291823646488
  0.6926561765614280  0.9455905732821307  0.9472951631694021
  0.8213660117106129  0.0715323572312370  0.1012747101561119
  0.4922435626778648  0.4870839777051191  0.0194970283657378
  0.6984676276819259  0.4490235655296473  0.0562310158176064
  0.9899598896150670  0.9877126429214202  0.4216283200702605
  0.4476559246117721  0.1970099189215976  0.3557286124019137
  0.9868282598456329  0.4916210850418210  0.1211820531041152
  0.4857267201803322  0.4914258625729515  0.2229868603755121
  0.8216800522539263  0.5714076187479019  0.2010414646984296
  0.5733249413880098  0.8181211346387831  0.0039036855717021
  0.7422480133078890  0.7378586743942576  0.1190179224252981
  0.9887416094968045  0.9930005122685852  0.6242406072957879
  0.4906102047275355  0.9901610462732839  0.7196472544370925
  0.7405610323097260  0.2412336708526517  0.6231614454252835
  0.2389225675136734  0.7405723403970619  0.2219872056057161
  0.1948782169787917  0.9474576736380547  0.0557432507712572
  0.2375465139366527  0.2392565440789575  0.7183854794825003
  0.4467728783306946  0.1962947464287673  0.7553777326016531
  0.1120235060394399  0.6152694522699135  0.4671276828847999
  0.8587399657946569  0.3659523596201480  0.7709889034011751
  0.2387818892368707  0.7413944744088041  0.4231635901498291
  0.2019458351218882  0.9448953598306954  0.2569661510154943
  0.0731233159284100  0.8225922563014609  0.5054205939126287
  0.9519594279356250  0.6994032914539112  0.7556896879193883
  0.1961939936818678  0.9517702558349892  0.6532133183025248
 
  0.00000000E+00  0.00000000E+00  0.00000000E+00
  0.00000000E+00  0.00000000E+00  0.00000000E+00
  0.00000000E+00  0.00000000E+00  0.00000000E+00
  0.00000000E+00  0.00000000E+00  0.00000000E+00
  0.00000000E+00  0.00000000E+00  0.00000000E+00
  0.00000000E+00  0.00000000E+00  0.00000000E+00
  0.00000000E+00  0.00000000E+00  0.00000000E+00
  0.00000000E+00  0.00000000E+00  0.00000000E+00
  0.00000000E+00  0.00000000E+00  0.00000000E+00
  0.00000000E+00  0.00000000E+00  0.00000000E+00
  0.00000000E+00  0.00000000E+00  0.00000000E+00
  0.00000000E+00  0.00000000E+00  0.00000000E+00
  0.00000000E+00  0.00000000E+00  0.00000000E+00
  0.00000000E+00  0.00000000E+00  0.00000000E+00
  0.00000000E+00  0.00000000E+00  0.00000000E+00
  0.00000000E+00  0.00000000E+00  0.00000000E+00
  0.00000000E+00  0.00000000E+00  0.00000000E+00
  0.00000000E+00  0.00000000E+00  0.00000000E+00
  0.00000000E+00  0.00000000E+00  0.00000000E+00
  0.00000000E+00  0.00000000E+00  0.00000000E+00
  0.00000000E+00  0.00000000E+00  0.00000000E+00
  0.00000000E+00  0.00000000E+00  0.00000000E+00
  0.00000000E+00  0.00000000E+00  0.00000000E+00
  0.00000000E+00  0.00000000E+00  0.00000000E+00
  0.00000000E+00  0.00000000E+00  0.00000000E+00
  0.00000000E+00  0.00000000E+00  0.00000000E+00
  0.00000000E+00  0.00000000E+00  0.00000000E+00
  0.00000000E+00  0.00000000E+00  0.00000000E+00
  0.00000000E+00  0.00000000E+00  0.00000000E+00
  0.00000000E+00  0.00000000E+00  0.00000000E+00
  0.00000000E+00  0.00000000E+00  0.00000000E+00
  0.00000000E+00  0.00000000E+00  0.00000000E+00
  0.00000000E+00  0.00000000E+00  0.00000000E+00
  0.00000000E+00  0.00000000E+00  0.00000000E+00
  0.00000000E+00  0.00000000E+00  0.00000000E+00
  0.00000000E+00  0.00000000E+00  0.00000000E+00
  0.00000000E+00  0.00000000E+00  0.00000000E+00
  0.00000000E+00  0.00000000E+00  0.00000000E+00
  0.00000000E+00  0.00000000E+00  0.00000000E+00
  0.00000000E+00  0.00000000E+00  0.00000000E+00
  0.00000000E+00  0.00000000E+00  0.00000000E+00
  0.00000000E+00  0.00000000E+00  0.00000000E+00
  0.00000000E+00  0.00000000E+00  0.00000000E+00
  0.00000000E+00  0.00000000E+00  0.00000000E+00
  0.00000000E+00  0.00000000E+00  0.00000000E+00
  0.00000000E+00  0.00000000E+00  0.00000000E+00
  0.00000000E+00  0.00000000E+00  0.00000000E+00
  0.00000000E+00  0.00000000E+00  0.00000000E+00
  0.00000000E+00  0.00000000E+00  0.00000000E+00
  0.00000000E+00  0.00000000E+00  0.00000000E+00
  0.00000000E+00  0.00000000E+00  0.00000000E+00
  0.00000000E+00  0.00000000E+00  0.00000000E+00
  0.00000000E+00  0.00000000E+00  0.00000000E+00
  0.00000000E+00  0.00000000E+00  0.00000000E+00
  0.00000000E+00  0.00000000E+00  0.00000000E+00
  0.00000000E+00  0.00000000E+00  0.00000000E+00
  0.00000000E+00  0.00000000E+00  0.00000000E+00
  0.00000000E+00  0.00000000E+00  0.00000000E+00
  0.00000000E+00  0.00000000E+00  0.00000000E+00
  0.00000000E+00  0.00000000E+00  0.00000000E+00
  0.00000000E+00  0.00000000E+00  0.00000000E+00
  0.00000000E+00  0.00000000E+00  0.00000000E+00
  0.00000000E+00  0.00000000E+00  0.00000000E+00
  0.00000000E+00  0.00000000E+00  0.00000000E+00
  0.00000000E+00  0.00000000E+00  0.00000000E+00
  0.00000000E+00  0.00000000E+00  0.00000000E+00
  0.00000000E+00  0.00000000E+00  0.00000000E+00
  0.00000000E+00  0.00000000E+00  0.00000000E+00
  0.00000000E+00  0.00000000E+00  0.00000000E+00
  0.00000000E+00  0.00000000E+00  0.00000000E+00
  0.00000000E+00  0.00000000E+00  0.00000000E+00
  0.00000000E+00  0.00000000E+00  0.00000000E+00
  0.00000000E+00  0.00000000E+00  0.00000000E+00
  0.00000000E+00  0.00000000E+00  0.00000000E+00
  0.00000000E+00  0.00000000E+00  0.00000000E+00
  0.00000000E+00  0.00000000E+00  0.00000000E+00
  0.00000000E+00  0.00000000E+00  0.00000000E+00
  0.00000000E+00  0.00000000E+00  0.00000000E+00
  0.00000000E+00  0.00000000E+00  0.00000000E+00
  0.00000000E+00  0.00000000E+00  0.00000000E+00
  0.00000000E+00  0.00000000E+00  0.00000000E+00
  0.00000000E+00  0.00000000E+00  0.00000000E+00
  0.00000000E+00  0.00000000E+00  0.00000000E+00
  0.00000000E+00  0.00000000E+00  0.00000000E+00
  0.00000000E+00  0.00000000E+00  0.00000000E+00
  0.00000000E+00  0.00000000E+00  0.00000000E+00
  0.00000000E+00  0.00000000E+00  0.00000000E+00
  0.00000000E+00  0.00000000E+00  0.00000000E+00
  0.00000000E+00  0.00000000E+00  0.00000000E+00
  0.00000000E+00  0.00000000E+00  0.00000000E+00
  0.00000000E+00  0.00000000E+00  0.00000000E+00
  0.00000000E+00  0.00000000E+00  0.00000000E+00
  0.00000000E+00  0.00000000E+00  0.00000000E+00
  0.00000000E+00  0.00000000E+00  0.00000000E+00
  0.00000000E+00  0.00000000E+00  0.00000000E+00
  0.00000000E+00  0.00000000E+00  0.00000000E+00
  0.00000000E+00  0.00000000E+00  0.00000000E+00
  0.00000000E+00  0.00000000E+00  0.00000000E+00
  0.00000000E+00  0.00000000E+00  0.00000000E+00
  0.00000000E+00  0.00000000E+00  0.00000000E+00
  0.00000000E+00  0.00000000E+00  0.00000000E+00
  0.00000000E+00  0.00000000E+00  0.00000000E+00
  0.00000000E+00  0.00000000E+00  0.00000000E+00
  0.00000000E+00  0.00000000E+00  0.00000000E+00
  0.00000000E+00  0.00000000E+00  0.00000000E+00
  0.00000000E+00  0.00000000E+00  0.00000000E+00
  0.00000000E+00  0.00000000E+00  0.00000000E+00
  0.00000000E+00  0.00000000E+00  0.00000000E+00
  0.00000000E+00  0.00000000E+00  0.00000000E+00
  0.00000000E+00  0.00000000E+00  0.00000000E+00
  0.00000000E+00  0.00000000E+00  0.00000000E+00
  0.00000000E+00  0.00000000E+00  0.00000000E+00
  0.00000000E+00  0.00000000E+00  0.00000000E+00
  0.00000000E+00  0.00000000E+00  0.00000000E+00
  0.00000000E+00  0.00000000E+00  0.00000000E+00
  0.00000000E+00  0.00000000E+00  0.00000000E+00
  0.00000000E+00  0.00000000E+00  0.00000000E+00
  0.00000000E+00  0.00000000E+00  0.00000000E+00
  0.00000000E+00  0.00000000E+00  0.00000000E+00
  0.00000000E+00  0.00000000E+00  0.00000000E+00
  0.00000000E+00  0.00000000E+00  0.00000000E+00
  0.00000000E+00  0.00000000E+00  0.00000000E+00
  0.00000000E+00  0.00000000E+00  0.00000000E+00
  0.00000000E+00  0.00000000E+00  0.00000000E+00
  0.00000000E+00  0.00000000E+00  0.00000000E+00
  0.00000000E+00  0.00000000E+00  0.00000000E+00
  0.00000000E+00  0.00000000E+00  0.00000000E+00
  0.00000000E+00  0.00000000E+00  0.00000000E+00
  0.00000000E+00  0.00000000E+00  0.00000000E+00
  0.00000000E+00  0.00000000E+00  0.00000000E+00
  0.00000000E+00  0.00000000E+00  0.00000000E+00
  0.00000000E+00  0.00000000E+00  0.00000000E+00
  0.00000000E+00  0.00000000E+00  0.00000000E+00
  0.00000000E+00  0.00000000E+00  0.00000000E+00
  0.00000000E+00  0.00000000E+00  0.00000000E+00
  0.00000000E+00  0.00000000E+00  0.00000000E+00
  0.00000000E+00  0.00000000E+00  0.00000000E+00
  0.00000000E+00  0.00000000E+00  0.00000000E+00
  0.00000000E+00  0.00000000E+00  0.00000000E+00
  0.00000000E+00  0.00000000E+00  0.00000000E+00
  0.00000000E+00  0.00000000E+00  0.00000000E+00
  0.00000000E+00  0.00000000E+00  0.00000000E+00
  0.00000000E+00  0.00000000E+00  0.00000000E+00
  0.00000000E+00  0.00000000E+00  0.00000000E+00
  0.00000000E+00  0.00000000E+00  0.00000000E+00
  0.00000000E+00  0.00000000E+00  0.00000000E+00
  0.00000000E+00  0.00000000E+00  0.00000000E+00
  0.00000000E+00  0.00000000E+00  0.00000000E+00
  0.00000000E+00  0.00000000E+00  0.00000000E+00
  0.00000000E+00  0.00000000E+00  0.00000000E+00
  0.00000000E+00  0.00000000E+00  0.00000000E+00
  0.00000000E+00  0.00000000E+00  0.00000000E+00
  0.00000000E+00  0.00000000E+00  0.00000000E+00
  0.00000000E+00  0.00000000E+00  0.00000000E+00
  0.00000000E+00  0.00000000E+00  0.00000000E+00
  0.00000000E+00  0.00000000E+00  0.00000000E+00
  0.00000000E+00  0.00000000E+00  0.00000000E+00
  0.00000000E+00  0.00000000E+00  0.00000000E+00
  0.00000000E+00  0.00000000E+00  0.00000000E+00
  0.00000000E+00  0.00000000E+00  0.00000000E+00
