FeNiCoCrMn_SQSfcc24_Ni64                
   3.80000000000000     
     2.3397736703455831   -1.4052329524187293    1.8720982809536579
     1.4039821898390581    2.3445849629113154   -1.8703324497541529
    -1.4014235826454080    2.3420251343086229    1.8690281234714476
   Fe   Ni   Co   Cr   Mn
    24    64    24    24    24
Direct
  0.0311954412798608  0.9545690037238566  0.6669822996380183
  0.0593384961232078  0.4957788235816274  0.9305092042327646
  0.1009494223897740  0.4547013029312132  0.6072791668168861
  0.3103182284887542  0.9018107513022231  0.0813790205314402
  0.4388608013967898  0.6990306025331825  0.7659846699329597
  0.4108966134245952  0.5536571095494872  0.8972294925995284
  0.3732642531132936  0.5955526698569356  0.2275617701524850
  0.5012654260742259  0.7954296754998824  0.3018368906942797
  0.4689222182269940  0.6495160318982419  0.4356900489031360
  0.4344265933572228  0.5027904062139081  0.5591290376568917
  0.2462251108339601  0.9946592697902837  0.7467182281622670
  0.6585609622573955  0.5503433889561098  0.6404261727126734
  0.7801553971987827  0.7516223228815107  0.7210067516570667
  0.3704941435914961  0.0000708370246949  0.6216115889455035
  0.6276194497588136  0.3997771797508356  0.7766370796461758
  0.8753599023290737  0.7991538152207093  0.9259524098812542
  0.7165950836777910  0.4476967378756168  0.9818134927870050
  0.5905387053842442  0.4478167635841084  0.1024377671327453
  0.9065715762270113  0.7464443826450484  0.5880176772762369
  0.9697307683169870  0.6478804404064086  0.9328698213874038
  0.6866772712669317  0.1018037180215862  0.9114555834606661
  0.5595750352482070  0.1022741235736231  0.0385736537790664
  0.8368557095004114  0.2466950094596405  0.6544320745276357
  0.8127826445931274  0.0961241772174359  0.7853472393360672
  0.0616018318699618  0.9004753959478088  0.3366682298896487
  0.0326288862596325  0.7488118641785549  0.4669046759009406
  0.0031667232340936  0.6014897766495224  0.6004023076276344
  0.0962887470150116  0.6489355901346411  0.8053631435585505
  0.2181837712253417  0.8474781835594889  0.8788664941158124
  0.1891365117006238  0.9000981815745915  0.2122973556386727
  0.0322998209959967  0.5531197346468240  0.2702536674221483
  0.0019305895279369  0.4017450221356045  0.4003481380076134
  0.2491220033351633  0.8022840457109459  0.5458015225045256
  0.2220852077651618  0.6537528830657474  0.6832284825158439
  0.0296302548008548  0.1493118830019741  0.8690894023900955
  0.1554355351254916  0.3481783306135238  0.9457897842564712
  0.1864816446164035  0.6989744799880337  0.0105467766761691
  0.2823046025698588  0.7513911959078544  0.2154980274370310
  0.0948230838954060  0.2534623823078166  0.4092475421178895
  0.2216887396064367  0.4522134915220190  0.4819231936331048
  0.3429944011470123  0.6521858463091421  0.5570582687490095
  0.3157662757791222  0.5043979341812360  0.6894775418997579
  0.1582854676243712  0.1517326170153224  0.7459915446325969
  0.5342631433640124  0.7492444874857788  0.9714094238186471
  0.2530471805680410  0.2027062473816615  0.9537218950233431
  0.2769568185962638  0.5485303149481624  0.0183762206226796
  0.1218184532837043  0.1989585251915640  0.0747764730719992
  0.5926779692722143  0.8494712017993674  0.5064681950383025
  0.1858344258124164  0.1010024213328749  0.4132312920950519
  0.3135018762577980  0.3002521531891947  0.4883787167664422
  0.5640176760705966  0.6996097026718391  0.6388342093778016
  0.5328005339958233  0.5499903280759594  0.7662602041173631
  0.6583530468788135  0.7498064476483639  0.8437644907864567
  0.3746735080587024  0.4034820525329341  0.0273864928687542
  0.4995822994767387  0.6004801270076539  0.1025656579904818
  0.2214266307188519  0.0478710701011127  0.0844852033283211
  0.3423671707137179  0.2514118412564663  0.1558986209957547
  0.5939119569682345  0.6475418063895020  0.3074671708965315
  0.7195448482223430  0.8497546972911584  0.3805856392152253
  0.4390730340923954  0.3007051731435206  0.3617692229820971
  0.5620967405321959  0.4992257930357616  0.4342730225214390
  0.6890305061602428  0.7003217248050450  0.5128854782527880
  0.4062007972099591  0.1515383517092768  0.4946827594362427
  0.5306172839706134  0.3523724427500843  0.5698568565300274
  0.7515743934871246  0.5984147165538507  0.8497122634033916
  0.4697391396684992  0.0476414955784048  0.8299187630032744
  0.5925106276107527  0.2504760442841513  0.9077404663062345
  0.7491333829035177  0.7994583187270633  0.0477967461612712
  0.8410387855475546  0.8495724338728735  0.2564270711518611
  0.8127198888948360  0.6989660677854573  0.3884135814012636
  0.7806059685836305  0.5495348074764541  0.5173017264800066
  0.7481548638924832  0.3990538072649521  0.6486765968925338
  0.8756753593630974  0.6007488933739767  0.7238084190696819
  0.5924044898560124  0.0476178575523597  0.7052764535647577
  0.8430368221816631  0.4483694796242766  0.8560883824543581
  0.8138745375836396  0.2981404061816642  0.9889272964924505
  0.8452192046511373  0.6479120970715128  0.0568858803287242
  0.8127086043658456  0.5010475475879281  0.1876990312985334
  0.9379412110062282  0.7010934773407630  0.2637940161208978
  0.7806099211851815  0.3497617292288591  0.3163048456235241
  0.9068230170065978  0.5493356090352833  0.3943590375886896
  0.7479389273236485  0.2006206252606514  0.4487368577474501
  0.9358792353768075  0.2984936241559585  0.8639487393232829
  0.7495628955102177  0.0001331154578359  0.2509410594381143
  0.8737013614925042  0.2024678462847628  0.3258445349117215
  0.8440383256683903  0.0516509849457075  0.4578737819579321
  0.9684681413649410  0.2505192019371972  0.5315920538029894
  0.8747347087238028  0.9978447718095832  0.1234596757955057
  0.1511667412080613  0.9481281011445122  0.5418125325515832
  0.1261594898213840  0.8012826650302798  0.6704364347447296
  0.0940160343747815  0.8489788955316739  0.0064942109362061
  0.1610160190071948  0.7532855101348336  0.3424291410678583
  0.1274150151844773  0.6000706831966854  0.4748854496037650
  0.4360329765168348  0.8966778266838924  0.9557246497049653
  0.2507940261068447  0.6049297855762221  0.3500990316222615
  0.0645762886968766  0.1017149385909722  0.5450368489163969
  0.9976323697254644  0.9981593574225911  0.9977453921345351
  0.2461044611139672  0.3976736143562539  0.1485296859972737
  0.3468390898826409  0.4526883495883627  0.3553958284851775
  0.6903340121874616  0.9007612394332091  0.7151210035480771
  0.2783617714806051  0.1473830524902098  0.6203085919873398
  0.7831545748447264  0.9475150200521963  0.9148591122924670
  0.4975224594121786  0.3990790260832184  0.8954127743709706
  0.6240827570077704  0.8028005616177653  0.1786977547411821
  0.3148726621034256  0.1038345935388515  0.2896427867349684
  0.9079870262004115  0.9510665112335652  0.7947746199294662
  0.9389154166038958  0.8975241448990386  0.4633968034369822
  0.4961513383621829  0.9992944222795981  0.5019938924510151
  0.6253222503642886  0.1972470428475268  0.5772344259269109
  0.6528052315336937  0.1469001128909255  0.2425726228621298
  0.9652284025738128  0.4509261982104166  0.7295039198364780
  0.9365731737246786  0.1012946813183599  0.6613130157930655
  0.0636959016511222  0.7060362233577838  0.1395744787583896
  0.2783953191699039  0.9568622135604770  0.4158560726685611
  0.3398261140171155  0.8557101946724039  0.7508405026140392
  0.1835321301528718  0.4921061065275744  0.8084658899551572
  0.3180310866106242  0.6995211467292157  0.8916202394191070
  0.0352450383084858  0.3506897364200422  0.0706990314412435
  0.4058196105465058  0.9526606056657787  0.2916610266024451
  0.0020991662948657  0.1983742085559962  0.2055172124302196
  0.3760070341963715  0.7997608566006776  0.4188377314981820
  0.1904621031328823  0.3026293673191205  0.6168185186580156
  0.5679393723825135  0.8995755845908884  0.8404592951450977
  0.6250041852316861  0.5960352209397221  0.9748301315085136
  0.3458748200768293  0.0444618672880786  0.9543221261666904
  0.4658968068279088  0.4474214876932527  0.2300498743319017
  0.4695634627309677  0.2582472071677868  0.0333268765772136
  0.5592713488673229  0.2876740472930364  0.2334573525597413
  0.6888905316404186  0.4949105691614336  0.3108857231927776
  0.5279786645829855  0.1418622511407613  0.3749688742345566
  0.7188525821150277  0.2486626513522673  0.7821583547821460
  0.6930340843786965  0.3028431519917211  0.1123271578854416
  0.6250945965881308  0.9981037481138320  0.3740118074733969
  0.7131110273233776  0.0508731313067615  0.5817525301453652
  0.9001882204154724  0.1422510456440329  0.9910407362413101
  0.9139348729067119  0.3575575657150665  0.1940197555055881
  0.0049180496287825  0.7998713547998031  0.7983419891429838
  0.0545649587630880  0.2973486284254254  0.7375222982969448
  0.1489948358430578  0.5536569273655695  0.1399659807449173
  0.1292035440860835  0.4055084954015218  0.2794688524449564
  0.4707176821763913  0.8489530731358556  0.6319592744940452
  0.2800021751238886  0.3532029533533836  0.8212774348137222
  0.1317620684033708  0.0073214840910374  0.8814226861981226
  0.4075885365542740  0.7495696122178784  0.0906928145121505
  0.5297079132673127  0.9516045190239609  0.1693168122405767
  0.0965217105964506  0.0496150664865757  0.2031064826494366
  0.2218266090357694  0.2545627401984782  0.2839502455010440
  0.4052867731559023  0.3525084380881638  0.6915399194599627
  0.3754991220060303  0.1947348605825207  0.8303985056585543
  0.6540180025052120  0.9460714304444021  0.0452504421539921
  0.8087784733763218  0.9045353349222853  0.5840516741673436
  0.5042045761345338  0.1980561291691011  0.6991639577759894
  0.7187940163224376  0.6521929759758354  0.1809372834826143
  0.4358651246502545  0.1032232540646147  0.1655111660041947
  0.6523474517905499  0.3478037318216315  0.4436721700313666
  0.9640617278690696  0.8446764030432075  0.1326312644006524
  0.8789818394989820  0.4024154000196166  0.5252169679418504
  0.9324068806966096  0.4966192359072035  0.0609987146923847
  0.7856617746631349  0.1514477905750339  0.1242479370892223
  0.9665514200413335  0.0520643878403980  0.3341915297542371
 
  0.00000000E+00  0.00000000E+00  0.00000000E+00
  0.00000000E+00  0.00000000E+00  0.00000000E+00
  0.00000000E+00  0.00000000E+00  0.00000000E+00
  0.00000000E+00  0.00000000E+00  0.00000000E+00
  0.00000000E+00  0.00000000E+00  0.00000000E+00
  0.00000000E+00  0.00000000E+00  0.00000000E+00
  0.00000000E+00  0.00000000E+00  0.00000000E+00
  0.00000000E+00  0.00000000E+00  0.00000000E+00
  0.00000000E+00  0.00000000E+00  0.00000000E+00
  0.00000000E+00  0.00000000E+00  0.00000000E+00
  0.00000000E+00  0.00000000E+00  0.00000000E+00
  0.00000000E+00  0.00000000E+00  0.00000000E+00
  0.00000000E+00  0.00000000E+00  0.00000000E+00
  0.00000000E+00  0.00000000E+00  0.00000000E+00
  0.00000000E+00  0.00000000E+00  0.00000000E+00
  0.00000000E+00  0.00000000E+00  0.00000000E+00
  0.00000000E+00  0.00000000E+00  0.00000000E+00
  0.00000000E+00  0.00000000E+00  0.00000000E+00
  0.00000000E+00  0.00000000E+00  0.00000000E+00
  0.00000000E+00  0.00000000E+00  0.00000000E+00
  0.00000000E+00  0.00000000E+00  0.00000000E+00
  0.00000000E+00  0.00000000E+00  0.00000000E+00
  0.00000000E+00  0.00000000E+00  0.00000000E+00
  0.00000000E+00  0.00000000E+00  0.00000000E+00
  0.00000000E+00  0.00000000E+00  0.00000000E+00
  0.00000000E+00  0.00000000E+00  0.00000000E+00
  0.00000000E+00  0.00000000E+00  0.00000000E+00
  0.00000000E+00  0.00000000E+00  0.00000000E+00
  0.00000000E+00  0.00000000E+00  0.00000000E+00
  0.00000000E+00  0.00000000E+00  0.00000000E+00
  0.00000000E+00  0.00000000E+00  0.00000000E+00
  0.00000000E+00  0.00000000E+00  0.00000000E+00
  0.00000000E+00  0.00000000E+00  0.00000000E+00
  0.00000000E+00  0.00000000E+00  0.00000000E+00
  0.00000000E+00  0.00000000E+00  0.00000000E+00
  0.00000000E+00  0.00000000E+00  0.00000000E+00
  0.00000000E+00  0.00000000E+00  0.00000000E+00
  0.00000000E+00  0.00000000E+00  0.00000000E+00
  0.00000000E+00  0.00000000E+00  0.00000000E+00
  0.00000000E+00  0.00000000E+00  0.00000000E+00
  0.00000000E+00  0.00000000E+00  0.00000000E+00
  0.00000000E+00  0.00000000E+00  0.00000000E+00
  0.00000000E+00  0.00000000E+00  0.00000000E+00
  0.00000000E+00  0.00000000E+00  0.00000000E+00
  0.00000000E+00  0.00000000E+00  0.00000000E+00
  0.00000000E+00  0.00000000E+00  0.00000000E+00
  0.00000000E+00  0.00000000E+00  0.00000000E+00
  0.00000000E+00  0.00000000E+00  0.00000000E+00
  0.00000000E+00  0.00000000E+00  0.00000000E+00
  0.00000000E+00  0.00000000E+00  0.00000000E+00
  0.00000000E+00  0.00000000E+00  0.00000000E+00
  0.00000000E+00  0.00000000E+00  0.00000000E+00
  0.00000000E+00  0.00000000E+00  0.00000000E+00
  0.00000000E+00  0.00000000E+00  0.00000000E+00
  0.00000000E+00  0.00000000E+00  0.00000000E+00
  0.00000000E+00  0.00000000E+00  0.00000000E+00
  0.00000000E+00  0.00000000E+00  0.00000000E+00
  0.00000000E+00  0.00000000E+00  0.00000000E+00
  0.00000000E+00  0.00000000E+00  0.00000000E+00
  0.00000000E+00  0.00000000E+00  0.00000000E+00
  0.00000000E+00  0.00000000E+00  0.00000000E+00
  0.00000000E+00  0.00000000E+00  0.00000000E+00
  0.00000000E+00  0.00000000E+00  0.00000000E+00
  0.00000000E+00  0.00000000E+00  0.00000000E+00
  0.00000000E+00  0.00000000E+00  0.00000000E+00
  0.00000000E+00  0.00000000E+00  0.00000000E+00
  0.00000000E+00  0.00000000E+00  0.00000000E+00
  0.00000000E+00  0.00000000E+00  0.00000000E+00
  0.00000000E+00  0.00000000E+00  0.00000000E+00
  0.00000000E+00  0.00000000E+00  0.00000000E+00
  0.00000000E+00  0.00000000E+00  0.00000000E+00
  0.00000000E+00  0.00000000E+00  0.00000000E+00
  0.00000000E+00  0.00000000E+00  0.00000000E+00
  0.00000000E+00  0.00000000E+00  0.00000000E+00
  0.00000000E+00  0.00000000E+00  0.00000000E+00
  0.00000000E+00  0.00000000E+00  0.00000000E+00
  0.00000000E+00  0.00000000E+00  0.00000000E+00
  0.00000000E+00  0.00000000E+00  0.00000000E+00
  0.00000000E+00  0.00000000E+00  0.00000000E+00
  0.00000000E+00  0.00000000E+00  0.00000000E+00
  0.00000000E+00  0.00000000E+00  0.00000000E+00
  0.00000000E+00  0.00000000E+00  0.00000000E+00
  0.00000000E+00  0.00000000E+00  0.00000000E+00
  0.00000000E+00  0.00000000E+00  0.00000000E+00
  0.00000000E+00  0.00000000E+00  0.00000000E+00
  0.00000000E+00  0.00000000E+00  0.00000000E+00
  0.00000000E+00  0.00000000E+00  0.00000000E+00
  0.00000000E+00  0.00000000E+00  0.00000000E+00
  0.00000000E+00  0.00000000E+00  0.00000000E+00
  0.00000000E+00  0.00000000E+00  0.00000000E+00
  0.00000000E+00  0.00000000E+00  0.00000000E+00
  0.00000000E+00  0.00000000E+00  0.00000000E+00
  0.00000000E+00  0.00000000E+00  0.00000000E+00
  0.00000000E+00  0.00000000E+00  0.00000000E+00
  0.00000000E+00  0.00000000E+00  0.00000000E+00
  0.00000000E+00  0.00000000E+00  0.00000000E+00
  0.00000000E+00  0.00000000E+00  0.00000000E+00
  0.00000000E+00  0.00000000E+00  0.00000000E+00
  0.00000000E+00  0.00000000E+00  0.00000000E+00
  0.00000000E+00  0.00000000E+00  0.00000000E+00
  0.00000000E+00  0.00000000E+00  0.00000000E+00
  0.00000000E+00  0.00000000E+00  0.00000000E+00
  0.00000000E+00  0.00000000E+00  0.00000000E+00
  0.00000000E+00  0.00000000E+00  0.00000000E+00
  0.00000000E+00  0.00000000E+00  0.00000000E+00
  0.00000000E+00  0.00000000E+00  0.00000000E+00
  0.00000000E+00  0.00000000E+00  0.00000000E+00
  0.00000000E+00  0.00000000E+00  0.00000000E+00
  0.00000000E+00  0.00000000E+00  0.00000000E+00
  0.00000000E+00  0.00000000E+00  0.00000000E+00
  0.00000000E+00  0.00000000E+00  0.00000000E+00
  0.00000000E+00  0.00000000E+00  0.00000000E+00
  0.00000000E+00  0.00000000E+00  0.00000000E+00
  0.00000000E+00  0.00000000E+00  0.00000000E+00
  0.00000000E+00  0.00000000E+00  0.00000000E+00
  0.00000000E+00  0.00000000E+00  0.00000000E+00
  0.00000000E+00  0.00000000E+00  0.00000000E+00
  0.00000000E+00  0.00000000E+00  0.00000000E+00
  0.00000000E+00  0.00000000E+00  0.00000000E+00
  0.00000000E+00  0.00000000E+00  0.00000000E+00
  0.00000000E+00  0.00000000E+00  0.00000000E+00
  0.00000000E+00  0.00000000E+00  0.00000000E+00
  0.00000000E+00  0.00000000E+00  0.00000000E+00
  0.00000000E+00  0.00000000E+00  0.00000000E+00
  0.00000000E+00  0.00000000E+00  0.00000000E+00
  0.00000000E+00  0.00000000E+00  0.00000000E+00
  0.00000000E+00  0.00000000E+00  0.00000000E+00
  0.00000000E+00  0.00000000E+00  0.00000000E+00
  0.00000000E+00  0.00000000E+00  0.00000000E+00
  0.00000000E+00  0.00000000E+00  0.00000000E+00
  0.00000000E+00  0.00000000E+00  0.00000000E+00
  0.00000000E+00  0.00000000E+00  0.00000000E+00
  0.00000000E+00  0.00000000E+00  0.00000000E+00
  0.00000000E+00  0.00000000E+00  0.00000000E+00
  0.00000000E+00  0.00000000E+00  0.00000000E+00
  0.00000000E+00  0.00000000E+00  0.00000000E+00
  0.00000000E+00  0.00000000E+00  0.00000000E+00
  0.00000000E+00  0.00000000E+00  0.00000000E+00
  0.00000000E+00  0.00000000E+00  0.00000000E+00
  0.00000000E+00  0.00000000E+00  0.00000000E+00
  0.00000000E+00  0.00000000E+00  0.00000000E+00
  0.00000000E+00  0.00000000E+00  0.00000000E+00
  0.00000000E+00  0.00000000E+00  0.00000000E+00
  0.00000000E+00  0.00000000E+00  0.00000000E+00
  0.00000000E+00  0.00000000E+00  0.00000000E+00
  0.00000000E+00  0.00000000E+00  0.00000000E+00
  0.00000000E+00  0.00000000E+00  0.00000000E+00
  0.00000000E+00  0.00000000E+00  0.00000000E+00
  0.00000000E+00  0.00000000E+00  0.00000000E+00
  0.00000000E+00  0.00000000E+00  0.00000000E+00
  0.00000000E+00  0.00000000E+00  0.00000000E+00
  0.00000000E+00  0.00000000E+00  0.00000000E+00
  0.00000000E+00  0.00000000E+00  0.00000000E+00
  0.00000000E+00  0.00000000E+00  0.00000000E+00
  0.00000000E+00  0.00000000E+00  0.00000000E+00
  0.00000000E+00  0.00000000E+00  0.00000000E+00
  0.00000000E+00  0.00000000E+00  0.00000000E+00
  0.00000000E+00  0.00000000E+00  0.00000000E+00
  0.00000000E+00  0.00000000E+00  0.00000000E+00
  0.00000000E+00  0.00000000E+00  0.00000000E+00
