FeNiCoCrMn_SQSbcc160_33_Ni28            
   2.80000000000000     
    -0.5077346993983354    2.5406401261056262   -0.5039460293891140
    -2.5256738372115723   -0.5047026554229712    2.5238656441629614
     6.0662474212264694    2.0305402438932272    6.0642706223486105
   Fe   Ni   Co   Cr   Mn
    33    28    33    33    33
Direct
  0.8998097113330690  0.8017688990178387  0.0723803530539937
  0.6530666877990741  0.8079495003349206  0.1381183320251939
  0.7751599300698950  0.7998292824001225  0.2301069174315899
  0.9083887106235028  0.8030050618928770  0.3271445022013034
  0.2762776053062479  0.7980005453456965  0.8564858423666939
  0.0227797880447621  0.8020027292705740  0.9175651176063857
  0.8073392283338198  0.6074185204304081  0.4055807909595926
  0.5486721076376304  0.6078029278034440  0.4645759830878655
  0.1718506405062317  0.6030944135575719  0.6826182284127595
  0.1720292779315929  0.6004750369717202  0.9297767135008089
  0.9528926705196262  0.4020913950954456  0.4122950463892613
  0.1999165554111141  0.4036137088369293  0.0997486866175971
  0.3239820181598888  0.3991142078652938  0.1933948477143428
  0.0716508676062231  0.4030989703503769  0.2553373088755164
  0.4453949882291356  0.3918439554609029  0.5388975017320389
  0.6967791847135092  0.3994802277004342  0.9738037091862605
  0.3196473150573182  0.3984273169564180  0.9414463713039888
  0.5968412202773298  0.2015487171855153  0.0480506316009314
  0.8574780581086440  0.2032772634506379  0.2344559065912937
  0.4780030053171531  0.2009683616096705  0.2035482054408281
  0.9717805998924971  0.1943007833154391  0.5822310653725695
  0.0997370111804537  0.2028201625914605  0.1730576107170070
  0.2254400891385777  0.1978374323835299  0.5207896098121740
  0.3473820901032170  0.1941038871666798  0.6141212642443540
  0.7505866000664048  0.0003509220092616  0.3164332539992959
  0.0023629530630707  0.0013952608701768 -0.0001164035959920
  0.1236706565086693 -0.0008170841744183  0.0923993179883870
  0.4966491604196752  0.0000046289279591  0.3775692974407769
  0.6242459761454001 -0.0041441143119369  0.7199336368119362
  0.8792466009473010 -0.0003525257873351  0.9080793808216322
  0.0052671811190241 -0.0017988097386541  0.5041220153824826
  0.1195604357697260 -0.0051287229857467  0.5965490200657338
  0.4928216746934755  0.0003549475682397  0.8762058602416096
  0.2778055039651193  0.8018031014821141  0.1004095640568041
  0.7954390734594493  0.7995437287799789  0.4795747503363232
  0.2773290700412395  0.8017989740568832  0.3487790212099579
  0.3897161991275698  0.7983398006639294  0.4432647997416884
  0.6487421399956280  0.7967353154347019  0.6340370464508622
  0.1549459046237144  0.7939069504679518  0.5112834617621399
  0.1473433011913129  0.8022197078408068  0.7625577433626409
  0.5478166895676045  0.5977559418294782  0.2148802945873259
  0.6638228982060915  0.5948491969383564  0.5589423088728199
  0.0449834505233253  0.5995116295202311  0.3398131343505039
  0.3041192699196161  0.6037029562623711  0.7766689803724585
  0.5699624011309721  0.4014638518537493  0.1288238857166501
  0.7029166963282163  0.3973267508472336  0.2229962734570670
  0.4535416664495742  0.4088885460010658  0.2872182620073061
  0.1933628419956957  0.3939990297168706  0.3490224107003079
  0.3238450730755870  0.3981465907625134  0.4464809361652538
  0.8329984538152451  0.4056209814245216  0.8178868086039066
  0.4417894720224892  0.4018202175847180  0.7889183804719768
  0.7278643088282624  0.2008331408125439  0.1409505575994210
  0.8452411991288897  0.1951729417626916  0.4884150928080663
  0.2282830915443211  0.2022726464290286  0.2672270247809728
  0.7266281381140478  0.1947055102000005  0.8893495738035481
  0.8500264438346300  0.2020133979626136  0.9862186811291258
  0.6346889832552695  0.0028013093811645  0.2206117084857982
  0.6170447573304690 -0.0095624969296234  0.4720103508320690
  0.1318080009356530  0.0066213363292170  0.3475982689992519
  0.3716602559804957 -0.0041814738290275  0.5370701140734820
  0.7452223020484701  0.0080539016483678  0.8164594908101040
  0.1393778835203265  0.7963852174537921  0.0088259772391479
  0.7756222126157482  0.7990372174170337  0.7313274852138956
  0.0459685328362740  0.8039484336442178  0.4151849333671070
  0.7750922067017285  0.7997953765192823  0.9798080944807657
  0.6799038937645727  0.6001428210573535  0.0560367742118077
  0.9210973542215359  0.6022777355445037  0.2434776716708007
  0.9256078400465714  0.5966842506529539  0.4979515334406825
  0.0450729866747073  0.6005730677793287  0.0845339714908124
  0.1766026882242691  0.5955080848474145  0.1814026717202404
  0.8029116461143122  0.5931923347417730  0.6502130280923548
  0.9249679229071793  0.5923945325440172  0.7441836398471116
  0.1666617488804972  0.6003861811060394  0.4362826296150587
  0.3037780422362558  0.5899585357502094  0.5262800203265519
  0.4161361725981303  0.5948428547083353  0.6212749145939791
  0.6685553096158026  0.6029453363883838  0.8036179987608024
  0.8239687503909005  0.3965175825611946  0.0667382346463127
  0.9492538542267041  0.4026725748515773  0.1602021325647229
  0.5694772724072764  0.3983799653586929  0.6304592317267450
  0.6960293675709269  0.3982967306361435  0.7234637396519149
  0.9476201221826890  0.3969969466485669  0.9147631443538521
  0.1872139471650270  0.4088779145535382  0.8487325075837657
  0.7334422823723699  0.1960596125695610  0.3940478928164427
  0.4883402905358237  0.1981668745639475  0.4588238556546101
  0.5960925590571255  0.1946740959334730  0.5529051586406096
  0.7262112030335134  0.2029932737203827  0.6462094331159596
  0.1001779087024113  0.1997442176476087  0.9225451852239063
  0.8821527145675855  0.0005527215253672  0.1540196443448546
  0.4992743662779634  0.0010300638498980  0.1251359771918374
  0.8746982447511520 -0.0021594151792570  0.4114470851567252
  0.2507575004963259  0.0082093478949175  0.1863470503110331
  0.5024611291269835  0.0042314506815773  0.6309255669813831
  0.2414411253141334 -0.0046648919692034  0.6907087726503421
  0.2483165978574001 -0.0029780579994820  0.9380922142102046
  0.3879272076712009  0.8025537747982738  0.1970141239815036
  0.5447247113515516  0.7949014251552121  0.2950057449777920
  0.9086903310439460  0.7944997760767686  0.5759445146617385
  0.5228833174777634  0.7977933417853980  0.5374708075593677
  0.4005137068697320  0.7949351269095110  0.6995780131506523
  0.5227178865052616  0.8050675846557691  0.7939371819099896
  0.8041787593702746  0.6083726548539935  0.1506724936458868
  0.3101341646636775  0.6034574263250631  0.0248326151976342
  0.9211139017157741  0.5933302339534240  0.9903256108199961
  0.0551494325823049  0.5967022347261046  0.5892967409565236
  0.4372299496833668  0.5979046903320855  0.8706225717324952
  0.0449703632361465  0.6156448440687413  0.8370359931095477
  0.0792529713311327  0.4088843812675358  0.0060280328268630
  0.5874486084238070  0.4078253559185239  0.3831732074412030
  0.8318804453265215  0.3960665919249967  0.5703536291060153
  0.9513658249642299  0.3954606208261738  0.6637048817697928
  0.1984228767254674  0.3985928304336984  0.6011848901119593
  0.0804790798274524  0.3984824214632964  0.7529204334748127
  0.2271630997620309  0.2019517023643853  0.0178319230275170
  0.5998454932245152  0.1970637984161053  0.2976087749113785
  0.8495719426286623  0.1986021545272391  0.7417984971423696
  0.9857988258098392  0.2036649603217847  0.8289498435234284
  0.4714096729812137  0.2005330480376403  0.7091402085481890
  0.5938136127891915  0.2054428097370515  0.7964465185402502
  0.0893632833223051  0.1958797100081904  0.6751661362955446
  0.2209249493627972  0.1987777400283872  0.7666625180808253
  0.4746362224158063  0.2010616186350213  0.9549435804560163
  0.3837143548778851 -0.0029133117295273  0.0314023291542393
  0.7409337126297638 -0.0131484957229868  0.5669328487671852
 -0.0070180137998741 -0.0060142010808168  0.2504798341364648
  0.2550514674658000  0.0077479843399099  0.4429566139250631
  0.3783456138949359  0.0032042635591484  0.7835465718729588
  0.1194730967935232  0.0003618245371825  0.8420199042876795
  0.5319584840538918  0.8006880527739413  0.0423082758254262
  0.6511036218123321  0.8033708273037861  0.3876241841769621
  0.0278391989521299  0.7957748746885197  0.1641724237370509
  0.1373290264474634  0.8022893272963230  0.2598612064163630
  0.8908775985740258  0.8009742191249943  0.8237849396344142
  0.2956060096389325  0.8009241067022512  0.6052623067855838
  0.6403111514579628  0.8003121446558091  0.8854742334422744
  0.0161111924017334  0.7968359610624368  0.6676543977095661
  0.3984190575528669  0.7984473554083323  0.9493222716602414
  0.4260963546713984  0.6036880448844593  0.1193200096355959
  0.6812730728986860  0.6046345284504122  0.3084528244819277
  0.2972531786609817  0.6051935030692317  0.2762637854562092
  0.4157217091112027  0.5940720939624616  0.3735450457484373
  0.5529600635810301  0.6023843248966329  0.7111637917473652
  0.8050446989363722  0.5994432568518568  0.8970162026966504
  0.5481481698900948  0.5987531228690702  0.9621277061880995
  0.4463082790304497  0.4022529239583499  0.0354465223413975
  0.8149257495575349  0.3956075321190411  0.3183826531574766
  0.6980583259855623  0.4026951048952375  0.4767241227348750
  0.0676581079188163  0.3961617851524372  0.5081647055358269
  0.3189797758632528  0.3962060323943525  0.6932251651872071
  0.5781327821701157  0.4013988631365843  0.8810170242944172
  0.9807980160998648  0.2046605590116155  0.0784545726555698
  0.9767188180267359  0.1971566291065931  0.3299453914113175
  0.3471465704848805  0.1996722469763355  0.1093819818146718
  0.3718309534774277  0.2120725609629056  0.3621925366983316
  0.1023155848625136  0.1951539951323919  0.4264481127975404
  0.3461012847366286  0.2036089864374921  0.8600111786932636
  0.7519318064728309  0.0049653209169465  0.0622667390405958
  0.3786456113376505 -0.0017156025710626  0.2810593046966351
  0.8694330400984410  0.0020377760316823  0.6583098122196420
  0.6169402899648406  0.0017185371547183  0.9683426199452787
 -0.0040323211230968  0.0002958011215280  0.7521433404865185
 
  0.00000000E+00  0.00000000E+00  0.00000000E+00
  0.00000000E+00  0.00000000E+00  0.00000000E+00
  0.00000000E+00  0.00000000E+00  0.00000000E+00
  0.00000000E+00  0.00000000E+00  0.00000000E+00
  0.00000000E+00  0.00000000E+00  0.00000000E+00
  0.00000000E+00  0.00000000E+00  0.00000000E+00
  0.00000000E+00  0.00000000E+00  0.00000000E+00
  0.00000000E+00  0.00000000E+00  0.00000000E+00
  0.00000000E+00  0.00000000E+00  0.00000000E+00
  0.00000000E+00  0.00000000E+00  0.00000000E+00
  0.00000000E+00  0.00000000E+00  0.00000000E+00
  0.00000000E+00  0.00000000E+00  0.00000000E+00
  0.00000000E+00  0.00000000E+00  0.00000000E+00
  0.00000000E+00  0.00000000E+00  0.00000000E+00
  0.00000000E+00  0.00000000E+00  0.00000000E+00
  0.00000000E+00  0.00000000E+00  0.00000000E+00
  0.00000000E+00  0.00000000E+00  0.00000000E+00
  0.00000000E+00  0.00000000E+00  0.00000000E+00
  0.00000000E+00  0.00000000E+00  0.00000000E+00
  0.00000000E+00  0.00000000E+00  0.00000000E+00
  0.00000000E+00  0.00000000E+00  0.00000000E+00
  0.00000000E+00  0.00000000E+00  0.00000000E+00
  0.00000000E+00  0.00000000E+00  0.00000000E+00
  0.00000000E+00  0.00000000E+00  0.00000000E+00
  0.00000000E+00  0.00000000E+00  0.00000000E+00
  0.00000000E+00  0.00000000E+00  0.00000000E+00
  0.00000000E+00  0.00000000E+00  0.00000000E+00
  0.00000000E+00  0.00000000E+00  0.00000000E+00
  0.00000000E+00  0.00000000E+00  0.00000000E+00
  0.00000000E+00  0.00000000E+00  0.00000000E+00
  0.00000000E+00  0.00000000E+00  0.00000000E+00
  0.00000000E+00  0.00000000E+00  0.00000000E+00
  0.00000000E+00  0.00000000E+00  0.00000000E+00
  0.00000000E+00  0.00000000E+00  0.00000000E+00
  0.00000000E+00  0.00000000E+00  0.00000000E+00
  0.00000000E+00  0.00000000E+00  0.00000000E+00
  0.00000000E+00  0.00000000E+00  0.00000000E+00
  0.00000000E+00  0.00000000E+00  0.00000000E+00
  0.00000000E+00  0.00000000E+00  0.00000000E+00
  0.00000000E+00  0.00000000E+00  0.00000000E+00
  0.00000000E+00  0.00000000E+00  0.00000000E+00
  0.00000000E+00  0.00000000E+00  0.00000000E+00
  0.00000000E+00  0.00000000E+00  0.00000000E+00
  0.00000000E+00  0.00000000E+00  0.00000000E+00
  0.00000000E+00  0.00000000E+00  0.00000000E+00
  0.00000000E+00  0.00000000E+00  0.00000000E+00
  0.00000000E+00  0.00000000E+00  0.00000000E+00
  0.00000000E+00  0.00000000E+00  0.00000000E+00
  0.00000000E+00  0.00000000E+00  0.00000000E+00
  0.00000000E+00  0.00000000E+00  0.00000000E+00
  0.00000000E+00  0.00000000E+00  0.00000000E+00
  0.00000000E+00  0.00000000E+00  0.00000000E+00
  0.00000000E+00  0.00000000E+00  0.00000000E+00
  0.00000000E+00  0.00000000E+00  0.00000000E+00
  0.00000000E+00  0.00000000E+00  0.00000000E+00
  0.00000000E+00  0.00000000E+00  0.00000000E+00
  0.00000000E+00  0.00000000E+00  0.00000000E+00
  0.00000000E+00  0.00000000E+00  0.00000000E+00
  0.00000000E+00  0.00000000E+00  0.00000000E+00
  0.00000000E+00  0.00000000E+00  0.00000000E+00
  0.00000000E+00  0.00000000E+00  0.00000000E+00
  0.00000000E+00  0.00000000E+00  0.00000000E+00
  0.00000000E+00  0.00000000E+00  0.00000000E+00
  0.00000000E+00  0.00000000E+00  0.00000000E+00
  0.00000000E+00  0.00000000E+00  0.00000000E+00
  0.00000000E+00  0.00000000E+00  0.00000000E+00
  0.00000000E+00  0.00000000E+00  0.00000000E+00
  0.00000000E+00  0.00000000E+00  0.00000000E+00
  0.00000000E+00  0.00000000E+00  0.00000000E+00
  0.00000000E+00  0.00000000E+00  0.00000000E+00
  0.00000000E+00  0.00000000E+00  0.00000000E+00
  0.00000000E+00  0.00000000E+00  0.00000000E+00
  0.00000000E+00  0.00000000E+00  0.00000000E+00
  0.00000000E+00  0.00000000E+00  0.00000000E+00
  0.00000000E+00  0.00000000E+00  0.00000000E+00
  0.00000000E+00  0.00000000E+00  0.00000000E+00
  0.00000000E+00  0.00000000E+00  0.00000000E+00
  0.00000000E+00  0.00000000E+00  0.00000000E+00
  0.00000000E+00  0.00000000E+00  0.00000000E+00
  0.00000000E+00  0.00000000E+00  0.00000000E+00
  0.00000000E+00  0.00000000E+00  0.00000000E+00
  0.00000000E+00  0.00000000E+00  0.00000000E+00
  0.00000000E+00  0.00000000E+00  0.00000000E+00
  0.00000000E+00  0.00000000E+00  0.00000000E+00
  0.00000000E+00  0.00000000E+00  0.00000000E+00
  0.00000000E+00  0.00000000E+00  0.00000000E+00
  0.00000000E+00  0.00000000E+00  0.00000000E+00
  0.00000000E+00  0.00000000E+00  0.00000000E+00
  0.00000000E+00  0.00000000E+00  0.00000000E+00
  0.00000000E+00  0.00000000E+00  0.00000000E+00
  0.00000000E+00  0.00000000E+00  0.00000000E+00
  0.00000000E+00  0.00000000E+00  0.00000000E+00
  0.00000000E+00  0.00000000E+00  0.00000000E+00
  0.00000000E+00  0.00000000E+00  0.00000000E+00
  0.00000000E+00  0.00000000E+00  0.00000000E+00
  0.00000000E+00  0.00000000E+00  0.00000000E+00
  0.00000000E+00  0.00000000E+00  0.00000000E+00
  0.00000000E+00  0.00000000E+00  0.00000000E+00
  0.00000000E+00  0.00000000E+00  0.00000000E+00
  0.00000000E+00  0.00000000E+00  0.00000000E+00
  0.00000000E+00  0.00000000E+00  0.00000000E+00
  0.00000000E+00  0.00000000E+00  0.00000000E+00
  0.00000000E+00  0.00000000E+00  0.00000000E+00
  0.00000000E+00  0.00000000E+00  0.00000000E+00
  0.00000000E+00  0.00000000E+00  0.00000000E+00
  0.00000000E+00  0.00000000E+00  0.00000000E+00
  0.00000000E+00  0.00000000E+00  0.00000000E+00
  0.00000000E+00  0.00000000E+00  0.00000000E+00
  0.00000000E+00  0.00000000E+00  0.00000000E+00
  0.00000000E+00  0.00000000E+00  0.00000000E+00
  0.00000000E+00  0.00000000E+00  0.00000000E+00
  0.00000000E+00  0.00000000E+00  0.00000000E+00
  0.00000000E+00  0.00000000E+00  0.00000000E+00
  0.00000000E+00  0.00000000E+00  0.00000000E+00
  0.00000000E+00  0.00000000E+00  0.00000000E+00
  0.00000000E+00  0.00000000E+00  0.00000000E+00
  0.00000000E+00  0.00000000E+00  0.00000000E+00
  0.00000000E+00  0.00000000E+00  0.00000000E+00
  0.00000000E+00  0.00000000E+00  0.00000000E+00
  0.00000000E+00  0.00000000E+00  0.00000000E+00
  0.00000000E+00  0.00000000E+00  0.00000000E+00
  0.00000000E+00  0.00000000E+00  0.00000000E+00
  0.00000000E+00  0.00000000E+00  0.00000000E+00
  0.00000000E+00  0.00000000E+00  0.00000000E+00
  0.00000000E+00  0.00000000E+00  0.00000000E+00
  0.00000000E+00  0.00000000E+00  0.00000000E+00
  0.00000000E+00  0.00000000E+00  0.00000000E+00
  0.00000000E+00  0.00000000E+00  0.00000000E+00
  0.00000000E+00  0.00000000E+00  0.00000000E+00
  0.00000000E+00  0.00000000E+00  0.00000000E+00
  0.00000000E+00  0.00000000E+00  0.00000000E+00
  0.00000000E+00  0.00000000E+00  0.00000000E+00
  0.00000000E+00  0.00000000E+00  0.00000000E+00
  0.00000000E+00  0.00000000E+00  0.00000000E+00
  0.00000000E+00  0.00000000E+00  0.00000000E+00
  0.00000000E+00  0.00000000E+00  0.00000000E+00
  0.00000000E+00  0.00000000E+00  0.00000000E+00
  0.00000000E+00  0.00000000E+00  0.00000000E+00
  0.00000000E+00  0.00000000E+00  0.00000000E+00
  0.00000000E+00  0.00000000E+00  0.00000000E+00
  0.00000000E+00  0.00000000E+00  0.00000000E+00
  0.00000000E+00  0.00000000E+00  0.00000000E+00
  0.00000000E+00  0.00000000E+00  0.00000000E+00
  0.00000000E+00  0.00000000E+00  0.00000000E+00
  0.00000000E+00  0.00000000E+00  0.00000000E+00
  0.00000000E+00  0.00000000E+00  0.00000000E+00
  0.00000000E+00  0.00000000E+00  0.00000000E+00
  0.00000000E+00  0.00000000E+00  0.00000000E+00
  0.00000000E+00  0.00000000E+00  0.00000000E+00
  0.00000000E+00  0.00000000E+00  0.00000000E+00
  0.00000000E+00  0.00000000E+00  0.00000000E+00
  0.00000000E+00  0.00000000E+00  0.00000000E+00
  0.00000000E+00  0.00000000E+00  0.00000000E+00
  0.00000000E+00  0.00000000E+00  0.00000000E+00
  0.00000000E+00  0.00000000E+00  0.00000000E+00
  0.00000000E+00  0.00000000E+00  0.00000000E+00
  0.00000000E+00  0.00000000E+00  0.00000000E+00
  0.00000000E+00  0.00000000E+00  0.00000000E+00
  0.00000000E+00  0.00000000E+00  0.00000000E+00
  0.00000000E+00  0.00000000E+00  0.00000000E+00
