FeNiCoCrMn_SQSbcc160_31_36              
   2.80000000000000     
    -1.0100619081504771    3.0294034998656678   -1.0190999923275887
    -3.0142482660273036   -1.0059127727310424    2.0338826767471629
     4.0303039111197050    2.0196970865279180    5.1058025314637696
   Fe   Ni   Co   Cr   Mn
    31    31    31    36    31
Direct
  0.7721498741670685  0.9833698611804941  0.0623000495136864
  0.3785214874673848  0.8806907289593725  0.6279481120780590
  0.8221068300795027  0.7299693115328155  0.3727945951570343
  0.8367030824718547  0.6391137051339527  0.8062318067546894
  0.0328979603408728  0.7464625879372188  0.3121617673411542
  0.1056814052343037  0.7131672637320324  0.4365034922989933
  0.2631242307795045  0.6613138958010778  0.6836011823133186
  0.8430466465974040  0.5548617684435289  0.2485298547167569
  0.5850086181702960  0.4828008643595335  0.6263507010280174
  0.7300380209955072  0.4156771432239911  0.8748197091359715
  0.3643352319023370  0.4603294048068025  0.6830536656533703
  0.0807663985219726  0.4698911711425082  0.6200505444112780
  0.2268411156699359  0.4203457913175512  0.8712532275574886
  0.7371886551109395  0.3456073883807104  0.3129569267143633
  0.8095059278598161  0.3265601849558878  0.4402762420557426
  0.4468615231505559  0.3556732428908665  0.2481945052547158
  0.2363978077626369  0.3390287291435722  0.3120555708830106
  0.3123315178024511  0.3141504474558948  0.4350143775385426
  0.0454013439694847  0.2320071932646744  0.8124076699114176
  0.1156863828210560  0.2066240299738838  0.9367037602817960
  0.6863323449128450  0.1846341054129291  0.0626397520910018
  0.5476282490231235  0.1624857948456909  0.2536730602480083
  0.7843098850055199  0.0643317172129141  0.6283641060052045
  0.9269905273972602  0.0165815040321408  0.8760889289173894
  0.1910915028197686  0.1885592020483448  0.0606069425531886
  0.3275918443375152  0.1365243192566773  0.3097155031701859
  0.5687551854001996  0.0657905238069330  0.6892905348606466
  0.6374284276305114  0.0395799364920788  0.8129358631585998
  0.2063375602139079  0.1006416069465435  0.5043086342032669
  0.3497006784874485  0.0421408137067349  0.7486573389681420
  0.2142787241156809  0.0054669557138469  0.9405831678175745
  0.8409059009002384  0.9582890139117513  0.1872353764333498
  0.6440373946301334  0.9650861354682442  0.2588177064183014
  0.8016873765491923  0.8940997600674244  0.5084424532290861
  0.9549620012833191  0.8483142649357807  0.7615328827501070
  0.3674395666416330  0.9735967046910911  0.1930951835713431
  0.1432363710670058  0.9428906970520812  0.2523920202817376
  0.0085653452789161  0.9212492098076556  0.4406846935168989
  0.5812913853939881  0.7966114424660833  0.0008668700777259
  0.6679180641990170  0.7596262539894082  0.1208797621027015
  0.8891679702636104  0.6868774018626049  0.4945878991355991
  0.1700554668618799  0.7840823471188195  0.1370344547953931
  0.2584607876354292  0.7509351538444271  0.2565469600401706
  0.5626842691524039  0.6480222919086883  0.7442521756489698
  0.2013538128436246  0.7000035125310538  0.5598103568397671
  0.4144160146692006  0.6071648713143087  0.9256600473043911
  0.2120771194211358  0.5975591218452339 -0.0048687020918759
  0.8048950619659666  0.4072874300155035  0.0029206798002300
  0.5201329982418399  0.3176775334034593  0.3718443060133478
  0.8359417407551856  0.2204415394432760  0.8682273028688946
  0.3824513744878414  0.2982848071407455  0.5610498438165635
  0.5328266668108372  0.2375979386448987  0.8079682374114067
  0.6226033205930049  0.2131272901293267  0.9349676858447347
  0.1075248935528405  0.2985690056452058  0.4998636870210055
  0.4763896838809085  0.1720171294688698  0.1256085036258051
  0.6986396275013335  0.0960641790882825  0.5051157191867034
  0.4107065585243103  0.1168818224665105  0.4345405755704395
  0.4807704736853819  0.0927365855887016  0.5629558688682251
  0.7000379868984922  0.0018872732873789  0.9367830921727056
  0.0433290326476090  0.1469383551619565  0.2489593610666859
  0.0674886444330588  0.0622890333133252  0.6911710296941590
 -0.0015771986893147 -0.0016113446412672  0.0031069613321472
  0.8804270870717701  0.8670314744095019  0.6352130309061437
  0.6640966916278634  0.8567633458695390  0.6907012806573992
  0.1610423804459234  0.8566691625579592  0.6884152683736061
  0.3168743274751383  0.8091876541481120  0.9448061897362586
  0.8863180901210518  0.7884281298291685  0.0633730143525382
  0.9858129005938447  0.6652092029231274  0.6195042399315339
  0.4710560102834326  0.7690153349615180  0.1937101058265487
  0.1031973906466215  0.7960693360873361  0.0061329728070252
  0.6373384620164273  0.6147362518785381  0.8729184810006884
  0.3282392005937730  0.6344488031302988  0.8025506367335984
  0.0542692982188148  0.6463722871193606  0.7447120061916664
  0.7807153578382006  0.5685927586804482  0.1205423321823446
  0.9175949174567666  0.5320761249008216  0.3746289233850162
  0.4737264329313494  0.5831278379493694  0.0516875016934586
  0.7878902311231557  0.4953795011045985  0.5559239736348160
  0.8681128207787595  0.4599979444901535  0.6830047278137759
  0.2798025913237612  0.5875131222191184  0.1251988903718275
  0.3572240210813344  0.5532304751202363  0.2470887530543968
  0.4208680262072573  0.5266278947936883  0.3731367789406648
  0.2914349212361147  0.4954642419580186  0.5620430021204309
  0.5195089266659889  0.4104621146253991  0.9345773488662517
  0.6622268738479712  0.3697292061675252  0.1871251247071359
  0.3038967176285066  0.3936717308015265 -0.0048668276178698
  0.0229587578433893  0.3287746046990320  0.3745687742865957
  0.1752191146065105  0.2717798924114664  0.6265775776692900
  0.7509046559223022  0.1650546457586696  0.1894089975691313
  0.9919669457040806  0.0900077997018417  0.5613071610757824
  0.4002956053015333  0.1959544193860578 -0.0025534771291739
  0.8518169391485811  0.0458594410929267  0.7538276649078803
  0.2699251655056956  0.0681973590206112  0.6240049788169738
  0.4947448956525081  0.0047748204349085  0.0092527304189374
  0.9228292405676021  0.9482818148217321  0.3131068761662008
  0.5786011566276447  0.9595874825901800  0.1297691442814772
  0.7296549200430607  0.9315364236556786  0.3833331117566223
  0.4335945306777666  0.9468344295444735  0.3192982320348099
  0.7324264986930570  0.8390162600766649  0.8195153013858996
  0.2232325797627348  0.9186235598646946  0.3784278041410454
  0.9420484933711309  0.7573515661868280  0.1899995443290069
  0.7379544017691578  0.7594684242107622  0.2483913997859313
  0.3776309893572658  0.7897103905669904  0.0730322329017412
  0.5381916287001229  0.7461502573220232  0.3170095462419383
  0.6159503786289384  0.7115220520460999  0.4385567210487830
  0.7804149126270229  0.6618396851119753  0.6815520529753101
  0.9071415271995583  0.6065597421439447  0.9386078876475473
  0.3285009238302538  0.7265109315376829  0.3790518185159529
  0.4067414352772977  0.6986975487502992  0.4982065480543115
  0.4775006743411778  0.6773279947571565  0.6211522416853527
  0.1301750927634472  0.6267325288556663  0.8721524284247878
  0.6969501464696308  0.6043113560289505 -0.0007866979731978
  0.5591942928041370  0.5714683845053209  0.1785535285535842
  0.6313640023821548  0.5430818053703934  0.3078390759526480
  0.6929396770539962  0.5131940340494074  0.4328824228890860
  0.5029658277720929  0.4959178763377687  0.4965283621974996
  0.6516868742210412  0.4376174274827041  0.7495877008517232
  0.1339527490214212  0.5400985617137234  0.3099574312976782
  0.0107938752255492  0.5039733287504111  0.4994858255724736
  0.1498023869122260  0.4393408431864000  0.7462777471233415
  0.8901432071542253  0.2887204580537959  0.5661358412376489
  0.5995935124538518  0.2972145467913592  0.5023565275143917
  0.7571348535248211  0.2521174042203633  0.7445551194590668
  0.0895776641629955  0.3923829339138872  0.0610506138623278
  0.4637478805452528  0.2616086859856100  0.6827413201390179
  0.3293359315918166  0.2158725533824799  0.8748018020163953
  0.8355976100311117  0.1458014921905569  0.3170121981037729
  0.6313490643767478  0.1219944443221279  0.3753026274686762
  0.4308211899444807  0.0200147891986547  0.8767531386842312
  0.1474041128566279  0.0405696276102425  0.8166347205365779
  0.2840976748056431  0.9821534249616538  0.0674614852398353
  0.5088700792028227  0.9112432813708858  0.4381818108090377
  0.5850402686442793  0.8951031778230667  0.5628365676776158
  0.8088391899065420  0.8088500267759917  0.9398108328212019
  0.0588878424963577  0.9753269106197453  0.1303145417738982
  0.3008736602231862  0.8969928168361840  0.4984972163360344
  0.4523897167752317  0.8472294657377897  0.7487909534797199
  0.5163732720061784  0.8075882221078704  0.8737249810013034
  0.0738247182469949  0.8819161885702578  0.5642882098497040
  0.2369803876858992  0.8395433075440334  0.8141204656468575
  0.0312729274796518  0.8120446665664431  0.8829914082858880
  0.6848882646261268  0.6948576247373732  0.5649989668385967
  0.0014582677486406  0.5961232366465578  0.0602466439136177
  0.9456109982668987  0.4403090149811774  0.8086047575772304
  0.0677576057809643  0.5717234408100824  0.1897360977333688
  0.2122696856455552  0.5149271925072618  0.4368747227605024
  0.4433762427112148  0.4455109634664083  0.8109217639478336
  0.0161597055105811  0.4106651790777757  0.9367280426096726
  0.8791183790840761  0.3754680085288216  0.1259765304357489
  0.9494291643968436  0.3542753030933529  0.2516068205302651
  0.5862338071047888  0.3849938748655403  0.0595533861640792
  0.9643416850802440  0.2574677648113640  0.6871770508568937
  0.3736746223533766  0.3831673114346787  0.1237820897059248
  0.6800572911598721  0.2735521215617387  0.6214200418601028
  0.1597272790789535  0.3650661367415604  0.1846555493259436
  0.2618396890916845  0.2495930611922776  0.7483267385556364
  0.8930697628810934  0.1965950551107178 -0.0045415970500757
  0.9715604049716220  0.1779367138997037  0.1211930466395165
  0.9087686764605920  0.1223619429068294  0.4415543465696234
  0.2591650881731336  0.1681095934327805  0.1857280028419139
  0.1221349404624138  0.1190684538301554  0.3749595781748351
 
  0.00000000E+00  0.00000000E+00  0.00000000E+00
  0.00000000E+00  0.00000000E+00  0.00000000E+00
  0.00000000E+00  0.00000000E+00  0.00000000E+00
  0.00000000E+00  0.00000000E+00  0.00000000E+00
  0.00000000E+00  0.00000000E+00  0.00000000E+00
  0.00000000E+00  0.00000000E+00  0.00000000E+00
  0.00000000E+00  0.00000000E+00  0.00000000E+00
  0.00000000E+00  0.00000000E+00  0.00000000E+00
  0.00000000E+00  0.00000000E+00  0.00000000E+00
  0.00000000E+00  0.00000000E+00  0.00000000E+00
  0.00000000E+00  0.00000000E+00  0.00000000E+00
  0.00000000E+00  0.00000000E+00  0.00000000E+00
  0.00000000E+00  0.00000000E+00  0.00000000E+00
  0.00000000E+00  0.00000000E+00  0.00000000E+00
  0.00000000E+00  0.00000000E+00  0.00000000E+00
  0.00000000E+00  0.00000000E+00  0.00000000E+00
  0.00000000E+00  0.00000000E+00  0.00000000E+00
  0.00000000E+00  0.00000000E+00  0.00000000E+00
  0.00000000E+00  0.00000000E+00  0.00000000E+00
  0.00000000E+00  0.00000000E+00  0.00000000E+00
  0.00000000E+00  0.00000000E+00  0.00000000E+00
  0.00000000E+00  0.00000000E+00  0.00000000E+00
  0.00000000E+00  0.00000000E+00  0.00000000E+00
  0.00000000E+00  0.00000000E+00  0.00000000E+00
  0.00000000E+00  0.00000000E+00  0.00000000E+00
  0.00000000E+00  0.00000000E+00  0.00000000E+00
  0.00000000E+00  0.00000000E+00  0.00000000E+00
  0.00000000E+00  0.00000000E+00  0.00000000E+00
  0.00000000E+00  0.00000000E+00  0.00000000E+00
  0.00000000E+00  0.00000000E+00  0.00000000E+00
  0.00000000E+00  0.00000000E+00  0.00000000E+00
  0.00000000E+00  0.00000000E+00  0.00000000E+00
  0.00000000E+00  0.00000000E+00  0.00000000E+00
  0.00000000E+00  0.00000000E+00  0.00000000E+00
  0.00000000E+00  0.00000000E+00  0.00000000E+00
  0.00000000E+00  0.00000000E+00  0.00000000E+00
  0.00000000E+00  0.00000000E+00  0.00000000E+00
  0.00000000E+00  0.00000000E+00  0.00000000E+00
  0.00000000E+00  0.00000000E+00  0.00000000E+00
  0.00000000E+00  0.00000000E+00  0.00000000E+00
  0.00000000E+00  0.00000000E+00  0.00000000E+00
  0.00000000E+00  0.00000000E+00  0.00000000E+00
  0.00000000E+00  0.00000000E+00  0.00000000E+00
  0.00000000E+00  0.00000000E+00  0.00000000E+00
  0.00000000E+00  0.00000000E+00  0.00000000E+00
  0.00000000E+00  0.00000000E+00  0.00000000E+00
  0.00000000E+00  0.00000000E+00  0.00000000E+00
  0.00000000E+00  0.00000000E+00  0.00000000E+00
  0.00000000E+00  0.00000000E+00  0.00000000E+00
  0.00000000E+00  0.00000000E+00  0.00000000E+00
  0.00000000E+00  0.00000000E+00  0.00000000E+00
  0.00000000E+00  0.00000000E+00  0.00000000E+00
  0.00000000E+00  0.00000000E+00  0.00000000E+00
  0.00000000E+00  0.00000000E+00  0.00000000E+00
  0.00000000E+00  0.00000000E+00  0.00000000E+00
  0.00000000E+00  0.00000000E+00  0.00000000E+00
  0.00000000E+00  0.00000000E+00  0.00000000E+00
  0.00000000E+00  0.00000000E+00  0.00000000E+00
  0.00000000E+00  0.00000000E+00  0.00000000E+00
  0.00000000E+00  0.00000000E+00  0.00000000E+00
  0.00000000E+00  0.00000000E+00  0.00000000E+00
  0.00000000E+00  0.00000000E+00  0.00000000E+00
  0.00000000E+00  0.00000000E+00  0.00000000E+00
  0.00000000E+00  0.00000000E+00  0.00000000E+00
  0.00000000E+00  0.00000000E+00  0.00000000E+00
  0.00000000E+00  0.00000000E+00  0.00000000E+00
  0.00000000E+00  0.00000000E+00  0.00000000E+00
  0.00000000E+00  0.00000000E+00  0.00000000E+00
  0.00000000E+00  0.00000000E+00  0.00000000E+00
  0.00000000E+00  0.00000000E+00  0.00000000E+00
  0.00000000E+00  0.00000000E+00  0.00000000E+00
  0.00000000E+00  0.00000000E+00  0.00000000E+00
  0.00000000E+00  0.00000000E+00  0.00000000E+00
  0.00000000E+00  0.00000000E+00  0.00000000E+00
  0.00000000E+00  0.00000000E+00  0.00000000E+00
  0.00000000E+00  0.00000000E+00  0.00000000E+00
  0.00000000E+00  0.00000000E+00  0.00000000E+00
  0.00000000E+00  0.00000000E+00  0.00000000E+00
  0.00000000E+00  0.00000000E+00  0.00000000E+00
  0.00000000E+00  0.00000000E+00  0.00000000E+00
  0.00000000E+00  0.00000000E+00  0.00000000E+00
  0.00000000E+00  0.00000000E+00  0.00000000E+00
  0.00000000E+00  0.00000000E+00  0.00000000E+00
  0.00000000E+00  0.00000000E+00  0.00000000E+00
  0.00000000E+00  0.00000000E+00  0.00000000E+00
  0.00000000E+00  0.00000000E+00  0.00000000E+00
  0.00000000E+00  0.00000000E+00  0.00000000E+00
  0.00000000E+00  0.00000000E+00  0.00000000E+00
  0.00000000E+00  0.00000000E+00  0.00000000E+00
  0.00000000E+00  0.00000000E+00  0.00000000E+00
  0.00000000E+00  0.00000000E+00  0.00000000E+00
  0.00000000E+00  0.00000000E+00  0.00000000E+00
  0.00000000E+00  0.00000000E+00  0.00000000E+00
  0.00000000E+00  0.00000000E+00  0.00000000E+00
  0.00000000E+00  0.00000000E+00  0.00000000E+00
  0.00000000E+00  0.00000000E+00  0.00000000E+00
  0.00000000E+00  0.00000000E+00  0.00000000E+00
  0.00000000E+00  0.00000000E+00  0.00000000E+00
  0.00000000E+00  0.00000000E+00  0.00000000E+00
  0.00000000E+00  0.00000000E+00  0.00000000E+00
  0.00000000E+00  0.00000000E+00  0.00000000E+00
  0.00000000E+00  0.00000000E+00  0.00000000E+00
  0.00000000E+00  0.00000000E+00  0.00000000E+00
  0.00000000E+00  0.00000000E+00  0.00000000E+00
  0.00000000E+00  0.00000000E+00  0.00000000E+00
  0.00000000E+00  0.00000000E+00  0.00000000E+00
  0.00000000E+00  0.00000000E+00  0.00000000E+00
  0.00000000E+00  0.00000000E+00  0.00000000E+00
  0.00000000E+00  0.00000000E+00  0.00000000E+00
  0.00000000E+00  0.00000000E+00  0.00000000E+00
  0.00000000E+00  0.00000000E+00  0.00000000E+00
  0.00000000E+00  0.00000000E+00  0.00000000E+00
  0.00000000E+00  0.00000000E+00  0.00000000E+00
  0.00000000E+00  0.00000000E+00  0.00000000E+00
  0.00000000E+00  0.00000000E+00  0.00000000E+00
  0.00000000E+00  0.00000000E+00  0.00000000E+00
  0.00000000E+00  0.00000000E+00  0.00000000E+00
  0.00000000E+00  0.00000000E+00  0.00000000E+00
  0.00000000E+00  0.00000000E+00  0.00000000E+00
  0.00000000E+00  0.00000000E+00  0.00000000E+00
  0.00000000E+00  0.00000000E+00  0.00000000E+00
  0.00000000E+00  0.00000000E+00  0.00000000E+00
  0.00000000E+00  0.00000000E+00  0.00000000E+00
  0.00000000E+00  0.00000000E+00  0.00000000E+00
  0.00000000E+00  0.00000000E+00  0.00000000E+00
  0.00000000E+00  0.00000000E+00  0.00000000E+00
  0.00000000E+00  0.00000000E+00  0.00000000E+00
  0.00000000E+00  0.00000000E+00  0.00000000E+00
  0.00000000E+00  0.00000000E+00  0.00000000E+00
  0.00000000E+00  0.00000000E+00  0.00000000E+00
  0.00000000E+00  0.00000000E+00  0.00000000E+00
  0.00000000E+00  0.00000000E+00  0.00000000E+00
  0.00000000E+00  0.00000000E+00  0.00000000E+00
  0.00000000E+00  0.00000000E+00  0.00000000E+00
  0.00000000E+00  0.00000000E+00  0.00000000E+00
  0.00000000E+00  0.00000000E+00  0.00000000E+00
  0.00000000E+00  0.00000000E+00  0.00000000E+00
  0.00000000E+00  0.00000000E+00  0.00000000E+00
  0.00000000E+00  0.00000000E+00  0.00000000E+00
  0.00000000E+00  0.00000000E+00  0.00000000E+00
  0.00000000E+00  0.00000000E+00  0.00000000E+00
  0.00000000E+00  0.00000000E+00  0.00000000E+00
  0.00000000E+00  0.00000000E+00  0.00000000E+00
  0.00000000E+00  0.00000000E+00  0.00000000E+00
  0.00000000E+00  0.00000000E+00  0.00000000E+00
  0.00000000E+00  0.00000000E+00  0.00000000E+00
  0.00000000E+00  0.00000000E+00  0.00000000E+00
  0.00000000E+00  0.00000000E+00  0.00000000E+00
  0.00000000E+00  0.00000000E+00  0.00000000E+00
  0.00000000E+00  0.00000000E+00  0.00000000E+00
  0.00000000E+00  0.00000000E+00  0.00000000E+00
  0.00000000E+00  0.00000000E+00  0.00000000E+00
  0.00000000E+00  0.00000000E+00  0.00000000E+00
  0.00000000E+00  0.00000000E+00  0.00000000E+00
  0.00000000E+00  0.00000000E+00  0.00000000E+00
  0.00000000E+00  0.00000000E+00  0.00000000E+00
  0.00000000E+00  0.00000000E+00  0.00000000E+00
  0.00000000E+00  0.00000000E+00  0.00000000E+00
  0.00000000E+00  0.00000000E+00  0.00000000E+00
  0.00000000E+00  0.00000000E+00  0.00000000E+00
