FeNiCoCrMn_SQSfcc160_31_Co36            
   3.50000000000000     
    -1.5139040735709650    0.5067923881623314   -2.0185704115272554
     2.0205035104520479   -2.0202428899677005   -2.0183023358363124
    -3.0323839984460315   -3.0367522285903412    2.0230341507267275
   Fe   Ni   Co   Cr   Mn
    31    31    36    31    31
Direct
  0.9693509312420753  0.3658766554914524  0.0890651745709153
  0.8499450705177295  0.1761379575825500  0.0229625716891088
  0.8268704063458622  0.0379204982012451  0.1138943585872522
  0.8727602338096254  0.3094322822247087  0.4369252026984748
  0.8452803028151226  0.1752466754486667  0.5228833430983658
  0.9027395070113212  0.9504023363266390  0.3494357481257559
  0.7761018190908728  0.7660216448140862  0.2869430776860641
  0.9296568127802131  0.5868732035136737  0.7629615296518848
  0.8191764896988170  0.5394662462884166  0.6135906863385754
  0.4221583235203180  0.3368360553869290  0.0126963102368278
  0.6962624681879753  0.3522983549361032  0.5497583813229384
  0.4742067581889915  0.1112011032702187  0.3353400940842576
  0.8027633857278611  0.8982001719402111  0.6997110996958849
  0.4009797292170171  0.6943538941773226  0.0990842631298905
  0.7767775638634655  0.7575466732657788  0.7890376338913738
  0.6498930758130584  0.5723504806364090  0.7246084580779346
  0.5269679790084603  0.3882961395105503  0.6653078410190425
  0.6033157788175294  0.2995712817756666  0.8972559250492900
  0.2731416490744757  0.0135749368046813  0.5349325972735218
  0.4228704559171847  0.8383653674625242  0.5089381643635362
  0.2960937465162219  0.6515553421326947  0.4527544507425445
  0.5804231960509217  0.6618327410188937  0.9869591154047698
  0.0734503733679976  0.4090947004230747  0.2398404199459507
  0.4529515723873297  0.4749526364368505  0.9244283891554615
  0.3479871422582138  0.4213648898779666  0.7728843369808776
  0.2243690084618925  0.2380091330626340  0.7123216213652915
  0.1234439787554536  0.1904989957246618  0.5624638295285214
  0.1802849356395715  0.9607454002246623  0.3853748521210056
  0.2243498256816530  0.7346026432826053  0.7165621258502006
  0.1000182591284726  0.5483343488697530  0.6494840998971045
  0.0724093570268211  0.4086173479306425  0.7341036726898277
  0.9509216296659401  0.2235126021837427  0.1747304679617658
  0.9503626967068527  0.7266678683974674  0.1755697395866745
  0.6982082269042452  0.3522544004351775  0.0503249747812644
  0.7019329367240441  0.8492085780072323  0.0502272383055039
  0.8761328360304941  0.8143373969011214  0.4366294547615078
  0.6756403436340597  0.7129686573049250  0.1375104292627104
  0.5220065052118122  0.3876353326465471  0.1626732321986561
  0.8750419142847394  0.3144462768655581  0.9374333758326946
  0.6733066810106767  0.2133463880584508  0.6353044597443619
  0.7542430212416388  0.1239235368335121  0.8725488769959812
  0.5251118914231717  0.8862598895333480  0.1639945938730130
  0.4274534383019812  0.8347821492487646  0.0127254656196607
  0.8999345542330586  0.9478115855629384  0.8494487810050864
  0.8759442880443743  0.8093281344815690  0.9387818275121688
  0.6730556994894644  0.7126209028158793  0.6384767338539906
  0.2263138965843537  0.2360606364281323  0.2143666215208908
  0.4771785739934119  0.1118130114279119  0.8352748618537237
  0.3497525179209995  0.9250125533636376  0.2743241474939200
  0.7273162299520188  0.9858487155539694  0.9640730028501909
  0.5255895280326600  0.8870236195986509  0.6622823440081925
  0.2240472561534813  0.7377638579722653  0.2127004313230147
  0.3969591639271850  0.7000069728870087  0.6005943302278701
  0.1742282406440027  0.4626052126821155  0.3872081628221107
  0.1510677665742789  0.3246585175601236  0.4764232888454683
  0.3227996949557432  0.2878870973862339  0.8632349199931290
  0.2021229623442951  0.0997101524256687  0.8003323185883976
  0.1016467949814047  0.0518750522247077  0.6511947481631380
  0.3497297212457434  0.9252156804311554  0.7754849122596833
  0.1480581107377224  0.8244016933884214  0.4746909025842085
  0.0243086936509746  0.6380764546375259  0.4119982622739908
  0.1477274268094664  0.3255508407711870  0.9777855152277364
  0.9742252158719634  0.8633918569081791  0.0892606602659788
  0.8514533469368245  0.6719590386076002  0.0252965507318052
  0.8225698970474775  0.5381619034636070  0.1124622515281581
  0.8987776178186008  0.4485091173085187  0.3502312017345853
  0.7995037757093065  0.3990236859915245  0.2001592856505120
  0.7541837403883159  0.1234032511591214  0.3728762346901459
  0.6521664098164400  0.0765921347109656  0.2256987478278591
  0.8255148803820519  0.0388132556710920  0.6113769601501868
  0.5500644885273965  0.5248282737885713  0.0748218052672523
  0.8029463263025896  0.3989406287011501  0.7014475805601244
  0.4993756996828991  0.2498629419274331  0.2493634389865122
  0.3777641447866487  0.0627347493518288  0.1859221940268706
  0.4769930709061390  0.6106072958827288  0.3399989211827393
  0.3771354642222673  0.5611306935895216  0.1867235727725911
  0.7516804465450920  0.6228818131792589  0.8755533883843046
  0.5482411341670284  0.5249529442419135  0.5742152709989593
  0.7257901495625161  0.4891041865114907  0.9628993939545940
  0.6302997268652522  0.4382972019080742  0.8132621212356004
  0.3021993672502782  0.1511469465556562  0.4491101951513909
  0.1995682074101381  0.0980176579650733  0.3011266048233187
  0.1012313305174218  0.0512400070536914  0.1518051857522022
  0.3762621022954098  0.0645976330196191  0.6854929828284019
  0.4518087813086057  0.9766568833224911  0.4229117920633775
  0.3244234474310122  0.7867193125626698  0.3636045743384935
  0.4969098506464068  0.7478369379585812  0.7493843233460713
  0.2773956680630129  0.5126622324787844  0.5385128111896338
  0.2972630964629704  0.1500297151269783  0.9501693145536764
  0.3261497354750509  0.7913727932943634  0.8643308755140915
  0.1212550161215543  0.6867222505112024  0.5643342598477302
  0.2990837447177579  0.6505695659474967  0.9500995508796055
  0.0249974159264012  0.1353153714155501  0.9133618755055161
  0.1745876572185986  0.9617275356938336  0.8857700705512104
  0.0741440948632382  0.9107392393503618  0.7366922653976036
  0.1536188361747931  0.8244147721827473  0.9730556083765023
  0.0485708628723666  0.7769928104738634  0.8267213232968720
  0.0243012737570202  0.6379930479243586  0.9134537529695056
  0.9477915307019082  0.2240433567939474  0.6687413857338166
  0.5553173676800751  0.0204909023565580  0.0783414528013415
  0.9309222460383735  0.0792756584428326  0.7603446769558563
  0.8008371431420909  0.9015264138343964  0.1994719527205000
  0.9717295902131150  0.8673521013475117  0.5884260263779115
  0.9520519869539865  0.7250796736612588  0.6765025931427525
  0.8537894998568509  0.6770808241877335  0.5248137726667556
  0.6508016255893477  0.5766266917238794  0.2263007677473321
  0.7267376737682272  0.4858619962093523  0.4638573291530690
  0.9022231108422715  0.4555327333804504  0.8469403188287163
  0.3957157402022954  0.2017793747553293  0.1022341799294248
  0.7777961793515260  0.2640986800629091  0.7857167118077384
  0.2727023846093080  0.0068299285212286  0.0347282469324894
  0.5477177363502743  0.0218175285731202  0.5727991051971167
  0.7371311674401242  0.9919585310061106  0.4612423668505320
  0.6259971358606896  0.9451877856450827  0.3140189459979165
  0.5994713875882086  0.7999903454645338  0.4022369770649643
  0.5663683059766355  0.6595426457812567  0.4916380061459333
  0.4477498037001641  0.4761596414920322  0.4272742355400296
  0.2406522120594532  0.3835303400610694  0.1322498699919945
  0.3282004458612462  0.2854473057729374  0.3641607753522236
  0.4913188438119273  0.2529264615165105  0.7480781803193233
  0.3917082324994176  0.2008467109839706  0.5966853921332995
  0.5819912239133364  0.1619946676390391  0.9834854880066659
  0.5993180585382426  0.7998521457992949  0.8986949046131248
  0.0261196875451088  0.1332085967729709  0.4138145785467786
  0.0053190787599584  0.0035970830334150  0.5012110269270048
  0.0730549413756923  0.9181771933707505  0.2364948887767482
  0.4426813692751679  0.9852274944501774  0.9310660929415138
  0.0462572933712838  0.7740617562494739  0.3249939065681230
  0.1958802320605713  0.6002836111363569  0.7999232372876541
  0.9249613735424244  0.0872966300659919  0.2633959463849229
  0.9255527960891661  0.5846349793546869  0.2624313404108879
  0.9674579396899319  0.3651885544780168  0.5869978850724936
  0.7736108235094374  0.2622714653585285  0.2864931654980559
  0.6678845876637340  0.2134053107414222  0.1345814820979007
  0.7500839917870348  0.6262891176476747  0.3780111236930858
  0.6258038589700097  0.4347246054646827  0.3116048377627262
  0.6009553808603606  0.2946301792883573  0.3974183942255087
  0.5763691249289786  0.1609318129804457  0.4832550320590703
  0.6500619356447480  0.0813646407987264  0.7229962812509062
  0.6986384692913680  0.8488092560276222  0.5478001437637613
  0.4962411177206769  0.7495541151376902  0.2543052752568921
  0.2818616008890273  0.5134683852701784  0.0351614908443997
  0.3564088714514145  0.4232469167866522  0.2785465255748028
  0.4269834444826443  0.3394446311245378  0.5154026418201578
  0.1338459198178295  0.1884515926215894  0.0642863335868696
  0.0036309384523530 -0.0047939669007760 -0.0008392392429578
  0.2476173927482774  0.8773135814282960  0.1250203478919576
  0.6219809824039925  0.9361696401817781  0.8142940051903992
  0.1260261134798917  0.6930459659893375  0.0617645518688858
  0.2098940272841418  0.5982493301400440  0.2990453711527129
  0.1021334498156003  0.5535423477091449  0.1464907290499808
 -0.0018380534194326  0.4997975967242219  0.0020213462010067
  0.4720052839061581  0.6116878032308741  0.8347345765053826
  0.3721483640570102  0.5596272502806491  0.6840628949922428
  0.2530504149837090  0.3778532590897952  0.6280951802405572
  0.0479582781472208  0.2736809053509658  0.3259000505140244
  0.2472371301477328  0.8735995364918231  0.6252904819471593
  0.0000883131662549  0.5015107212873759  0.4991541315682224
  0.1739565307437680  0.4642373482721169  0.8891772557033019
  0.0444369614199865  0.2712347157549372  0.8242482821188942
 
  0.00000000E+00  0.00000000E+00  0.00000000E+00
  0.00000000E+00  0.00000000E+00  0.00000000E+00
  0.00000000E+00  0.00000000E+00  0.00000000E+00
  0.00000000E+00  0.00000000E+00  0.00000000E+00
  0.00000000E+00  0.00000000E+00  0.00000000E+00
  0.00000000E+00  0.00000000E+00  0.00000000E+00
  0.00000000E+00  0.00000000E+00  0.00000000E+00
  0.00000000E+00  0.00000000E+00  0.00000000E+00
  0.00000000E+00  0.00000000E+00  0.00000000E+00
  0.00000000E+00  0.00000000E+00  0.00000000E+00
  0.00000000E+00  0.00000000E+00  0.00000000E+00
  0.00000000E+00  0.00000000E+00  0.00000000E+00
  0.00000000E+00  0.00000000E+00  0.00000000E+00
  0.00000000E+00  0.00000000E+00  0.00000000E+00
  0.00000000E+00  0.00000000E+00  0.00000000E+00
  0.00000000E+00  0.00000000E+00  0.00000000E+00
  0.00000000E+00  0.00000000E+00  0.00000000E+00
  0.00000000E+00  0.00000000E+00  0.00000000E+00
  0.00000000E+00  0.00000000E+00  0.00000000E+00
  0.00000000E+00  0.00000000E+00  0.00000000E+00
  0.00000000E+00  0.00000000E+00  0.00000000E+00
  0.00000000E+00  0.00000000E+00  0.00000000E+00
  0.00000000E+00  0.00000000E+00  0.00000000E+00
  0.00000000E+00  0.00000000E+00  0.00000000E+00
  0.00000000E+00  0.00000000E+00  0.00000000E+00
  0.00000000E+00  0.00000000E+00  0.00000000E+00
  0.00000000E+00  0.00000000E+00  0.00000000E+00
  0.00000000E+00  0.00000000E+00  0.00000000E+00
  0.00000000E+00  0.00000000E+00  0.00000000E+00
  0.00000000E+00  0.00000000E+00  0.00000000E+00
  0.00000000E+00  0.00000000E+00  0.00000000E+00
  0.00000000E+00  0.00000000E+00  0.00000000E+00
  0.00000000E+00  0.00000000E+00  0.00000000E+00
  0.00000000E+00  0.00000000E+00  0.00000000E+00
  0.00000000E+00  0.00000000E+00  0.00000000E+00
  0.00000000E+00  0.00000000E+00  0.00000000E+00
  0.00000000E+00  0.00000000E+00  0.00000000E+00
  0.00000000E+00  0.00000000E+00  0.00000000E+00
  0.00000000E+00  0.00000000E+00  0.00000000E+00
  0.00000000E+00  0.00000000E+00  0.00000000E+00
  0.00000000E+00  0.00000000E+00  0.00000000E+00
  0.00000000E+00  0.00000000E+00  0.00000000E+00
  0.00000000E+00  0.00000000E+00  0.00000000E+00
  0.00000000E+00  0.00000000E+00  0.00000000E+00
  0.00000000E+00  0.00000000E+00  0.00000000E+00
  0.00000000E+00  0.00000000E+00  0.00000000E+00
  0.00000000E+00  0.00000000E+00  0.00000000E+00
  0.00000000E+00  0.00000000E+00  0.00000000E+00
  0.00000000E+00  0.00000000E+00  0.00000000E+00
  0.00000000E+00  0.00000000E+00  0.00000000E+00
  0.00000000E+00  0.00000000E+00  0.00000000E+00
  0.00000000E+00  0.00000000E+00  0.00000000E+00
  0.00000000E+00  0.00000000E+00  0.00000000E+00
  0.00000000E+00  0.00000000E+00  0.00000000E+00
  0.00000000E+00  0.00000000E+00  0.00000000E+00
  0.00000000E+00  0.00000000E+00  0.00000000E+00
  0.00000000E+00  0.00000000E+00  0.00000000E+00
  0.00000000E+00  0.00000000E+00  0.00000000E+00
  0.00000000E+00  0.00000000E+00  0.00000000E+00
  0.00000000E+00  0.00000000E+00  0.00000000E+00
  0.00000000E+00  0.00000000E+00  0.00000000E+00
  0.00000000E+00  0.00000000E+00  0.00000000E+00
  0.00000000E+00  0.00000000E+00  0.00000000E+00
  0.00000000E+00  0.00000000E+00  0.00000000E+00
  0.00000000E+00  0.00000000E+00  0.00000000E+00
  0.00000000E+00  0.00000000E+00  0.00000000E+00
  0.00000000E+00  0.00000000E+00  0.00000000E+00
  0.00000000E+00  0.00000000E+00  0.00000000E+00
  0.00000000E+00  0.00000000E+00  0.00000000E+00
  0.00000000E+00  0.00000000E+00  0.00000000E+00
  0.00000000E+00  0.00000000E+00  0.00000000E+00
  0.00000000E+00  0.00000000E+00  0.00000000E+00
  0.00000000E+00  0.00000000E+00  0.00000000E+00
  0.00000000E+00  0.00000000E+00  0.00000000E+00
  0.00000000E+00  0.00000000E+00  0.00000000E+00
  0.00000000E+00  0.00000000E+00  0.00000000E+00
  0.00000000E+00  0.00000000E+00  0.00000000E+00
  0.00000000E+00  0.00000000E+00  0.00000000E+00
  0.00000000E+00  0.00000000E+00  0.00000000E+00
  0.00000000E+00  0.00000000E+00  0.00000000E+00
  0.00000000E+00  0.00000000E+00  0.00000000E+00
  0.00000000E+00  0.00000000E+00  0.00000000E+00
  0.00000000E+00  0.00000000E+00  0.00000000E+00
  0.00000000E+00  0.00000000E+00  0.00000000E+00
  0.00000000E+00  0.00000000E+00  0.00000000E+00
  0.00000000E+00  0.00000000E+00  0.00000000E+00
  0.00000000E+00  0.00000000E+00  0.00000000E+00
  0.00000000E+00  0.00000000E+00  0.00000000E+00
  0.00000000E+00  0.00000000E+00  0.00000000E+00
  0.00000000E+00  0.00000000E+00  0.00000000E+00
  0.00000000E+00  0.00000000E+00  0.00000000E+00
  0.00000000E+00  0.00000000E+00  0.00000000E+00
  0.00000000E+00  0.00000000E+00  0.00000000E+00
  0.00000000E+00  0.00000000E+00  0.00000000E+00
  0.00000000E+00  0.00000000E+00  0.00000000E+00
  0.00000000E+00  0.00000000E+00  0.00000000E+00
  0.00000000E+00  0.00000000E+00  0.00000000E+00
  0.00000000E+00  0.00000000E+00  0.00000000E+00
  0.00000000E+00  0.00000000E+00  0.00000000E+00
  0.00000000E+00  0.00000000E+00  0.00000000E+00
  0.00000000E+00  0.00000000E+00  0.00000000E+00
  0.00000000E+00  0.00000000E+00  0.00000000E+00
  0.00000000E+00  0.00000000E+00  0.00000000E+00
  0.00000000E+00  0.00000000E+00  0.00000000E+00
  0.00000000E+00  0.00000000E+00  0.00000000E+00
  0.00000000E+00  0.00000000E+00  0.00000000E+00
  0.00000000E+00  0.00000000E+00  0.00000000E+00
  0.00000000E+00  0.00000000E+00  0.00000000E+00
  0.00000000E+00  0.00000000E+00  0.00000000E+00
  0.00000000E+00  0.00000000E+00  0.00000000E+00
  0.00000000E+00  0.00000000E+00  0.00000000E+00
  0.00000000E+00  0.00000000E+00  0.00000000E+00
  0.00000000E+00  0.00000000E+00  0.00000000E+00
  0.00000000E+00  0.00000000E+00  0.00000000E+00
  0.00000000E+00  0.00000000E+00  0.00000000E+00
  0.00000000E+00  0.00000000E+00  0.00000000E+00
  0.00000000E+00  0.00000000E+00  0.00000000E+00
  0.00000000E+00  0.00000000E+00  0.00000000E+00
  0.00000000E+00  0.00000000E+00  0.00000000E+00
  0.00000000E+00  0.00000000E+00  0.00000000E+00
  0.00000000E+00  0.00000000E+00  0.00000000E+00
  0.00000000E+00  0.00000000E+00  0.00000000E+00
  0.00000000E+00  0.00000000E+00  0.00000000E+00
  0.00000000E+00  0.00000000E+00  0.00000000E+00
  0.00000000E+00  0.00000000E+00  0.00000000E+00
  0.00000000E+00  0.00000000E+00  0.00000000E+00
  0.00000000E+00  0.00000000E+00  0.00000000E+00
  0.00000000E+00  0.00000000E+00  0.00000000E+00
  0.00000000E+00  0.00000000E+00  0.00000000E+00
  0.00000000E+00  0.00000000E+00  0.00000000E+00
  0.00000000E+00  0.00000000E+00  0.00000000E+00
  0.00000000E+00  0.00000000E+00  0.00000000E+00
  0.00000000E+00  0.00000000E+00  0.00000000E+00
  0.00000000E+00  0.00000000E+00  0.00000000E+00
  0.00000000E+00  0.00000000E+00  0.00000000E+00
  0.00000000E+00  0.00000000E+00  0.00000000E+00
  0.00000000E+00  0.00000000E+00  0.00000000E+00
  0.00000000E+00  0.00000000E+00  0.00000000E+00
  0.00000000E+00  0.00000000E+00  0.00000000E+00
  0.00000000E+00  0.00000000E+00  0.00000000E+00
  0.00000000E+00  0.00000000E+00  0.00000000E+00
  0.00000000E+00  0.00000000E+00  0.00000000E+00
  0.00000000E+00  0.00000000E+00  0.00000000E+00
  0.00000000E+00  0.00000000E+00  0.00000000E+00
  0.00000000E+00  0.00000000E+00  0.00000000E+00
  0.00000000E+00  0.00000000E+00  0.00000000E+00
  0.00000000E+00  0.00000000E+00  0.00000000E+00
  0.00000000E+00  0.00000000E+00  0.00000000E+00
  0.00000000E+00  0.00000000E+00  0.00000000E+00
  0.00000000E+00  0.00000000E+00  0.00000000E+00
  0.00000000E+00  0.00000000E+00  0.00000000E+00
  0.00000000E+00  0.00000000E+00  0.00000000E+00
  0.00000000E+00  0.00000000E+00  0.00000000E+00
  0.00000000E+00  0.00000000E+00  0.00000000E+00
  0.00000000E+00  0.00000000E+00  0.00000000E+00
  0.00000000E+00  0.00000000E+00  0.00000000E+00
  0.00000000E+00  0.00000000E+00  0.00000000E+00
  0.00000000E+00  0.00000000E+00  0.00000000E+00
  0.00000000E+00  0.00000000E+00  0.00000000E+00
  0.00000000E+00  0.00000000E+00  0.00000000E+00
