FeNiCoCrMn_SQSbcc160_31_36              
   2.80000000000000     
    -1.0167466818190094    3.0485399326429206   -1.0017111793339355
    -3.0493253569009844   -1.0151441355485256    2.0055653424619861
     4.0614169168051957    2.0301283514983197    5.0074161414938940
   Fe   Ni   Co   Cr   Mn
    31    31    31    31    36
Direct
  0.7945485090603129  0.9919546772967830  0.0585269114229705
  0.3757136752233468  0.8779249191826430  0.6263213163031652
  0.8239008401020551  0.7269858651047347  0.3796965109070133
  0.8480099693976656  0.6404518651122239  0.8140749139350920
  0.0276389455899398  0.7382489061661196  0.3147546840488393
  0.1083540269481715  0.7118592537066465  0.4355765444524282
  0.2598405715620125  0.6616659816746359  0.6868480589899882
  0.8485582940430044  0.5519750441547934  0.2502798597268659
  0.5756648146019870  0.4758834189963700  0.6259687240498438
  0.7262369881397467  0.4121671010175759  0.8766054970634142
  0.3627449185888160  0.4620436677585136  0.6871224947170566
  0.0779179359105508  0.4761238248820858  0.6240217773029905
  0.2323065699854787  0.4277261339095787  0.8757967741601297
  0.7398296950536258  0.3398814937177662  0.3110025749237928
  0.8130328841122337  0.3103129110867822  0.4342698277297183
  0.4497522260014790  0.3516483855953314  0.2478270144175095
  0.2379437788679003  0.3369546143901543  0.3100305466163774
  0.3085241715698845  0.3203850360072412  0.4337098753709808
  0.0497781732548634  0.2366596941475697  0.8087387045923685
  0.1107384207807550  0.2069155758536495  0.9342315898605122
  0.6885935651059811  0.1862438616058591  0.0558603712524775
  0.5528319631138467  0.1569143582095628  0.2504839075946753
  0.7807578154954095  0.0628845810974259  0.6254230827063454
  0.9269464920520851  0.0195580974601723  0.8770252949950917
  0.2017475692828218  0.1932090443773243  0.0605966878149442
  0.3330789161761887  0.1397564176468616  0.3083762723999931
  0.5635531705495003  0.0596341291284432  0.6866411568207060
  0.6403517428960340  0.0450170995131802  0.8121484083744814
  0.2067171167471168  0.1047367039328438  0.5057161077705475
  0.3495563632106729  0.0468428722243103  0.7494117621145416
  0.2215611224098765  0.0161383390083906  0.9371704566468371
  0.8549037133378737  0.9600326991718509  0.1846683116239190
  0.6395023421884344  0.9507342724785681  0.2516206377512131
  0.8004130179148468  0.8933116665062962  0.5048656924899191
  0.9465364889497291  0.8461156840927750  0.7572966451840789
  0.3778139498486679  0.9706451730902772  0.1873634673173913
  0.1572308746574579  0.9449421063952141  0.2526533061521172
  0.0098625048286647  0.9198216314780037  0.4387659625880715
  0.6019800798967682  0.8106972081481292 -0.0009061184797379
  0.6671616495176370  0.7657042518870906  0.1250801360638844
  0.9013783766927261  0.6945612702861049  0.5038934937695909
  0.1843058468170110  0.7802246596647214  0.1366213802850628
  0.2485198905327924  0.7446257049576583  0.2611505923347310
  0.5498011633663371  0.6494393851920893  0.7526631231051231
  0.1788992966823965  0.6964842526628242  0.5628670166438692
  0.4275546678489828  0.6170661994298420  0.9295989569932456
  0.2205968570739427  0.6004435381449249 -0.0063777517811318
  0.8040866607297190  0.4072689463486706  0.0049674525678305
  0.5270764557929952  0.3237683602908498  0.3754186297667855
  0.8432160338377414  0.2242004415702524  0.8699695546080372
  0.3847830106685849  0.2992468265735975  0.5577544670799285
  0.5356725672087095  0.2404967991035082  0.8045250994597467
  0.6238599020866081  0.2152936815743138  0.9309925946762404
  0.1002398759897187  0.3009226807618121  0.4990428714874663
  0.4748907506663105  0.1689461820569564  0.1220764532212175
  0.7023579396802841  0.0967646486663045  0.5024976268432383
  0.4037223061102124  0.1158412574792157  0.4321368373619844
  0.4766787000130858  0.0881935335552306  0.5594445414656738
  0.6981753856116811  0.0029680367266086  0.9346424763360234
  0.0492297608105820  0.1456361126923181  0.2497402532705561
  0.0616907298924685  0.0676170394866496  0.6868489366042836
  0.0159936230857438 -0.0016866443510691  0.0040869727094262
  0.8752974270884226  0.8689877672041206  0.6318565582084888
  0.6616658209378675  0.8647915413814853  0.6930968318477880
  0.1578948952673412  0.8579409197551587  0.6861762798053579
  0.3120808477112165  0.8111877137077180  0.9378295635398649
  0.8874701147724305  0.7948465084705053  0.0661855182438553
  0.9698167715810057  0.6678244139320012  0.6296340457600712
  0.4481082568354924  0.7540653047351280  0.1882283395946097
  0.0976758499059247  0.7874853656319369  0.0060430897698118
  0.6490108320312491  0.6143597773713122  0.8779804761229388
  0.3193516447573557  0.6351647024562315  0.8078639965757481
  0.0555305492096512  0.6491080355361987  0.7516370953656804
  0.7828178136119520  0.5686244379617522  0.1240533899442801
  0.9200780531696745  0.5259098580190097  0.3739282260341604
  0.4789689492078046  0.5806544460418790  0.0573995441152906
  0.7837995887043457  0.4867852371745425  0.5608139714713299
  0.8620725433941638  0.4682096275454207  0.6870783829667866
  0.2656576081705593  0.5668265804914571  0.1187517356806430
  0.3490452444438781  0.5463495841812290  0.2451354747224614
  0.4163282397267009  0.5213288697551184  0.3727596708648561
  0.2897153309071712  0.4968814936949046  0.5636083536711748
  0.5168126000728347  0.4141300182822088  0.9391501771910857
  0.6617789062944666  0.3670826049794442  0.1873800950698251
  0.2901678238606545  0.3940912316422916 -0.0012833118758796
  0.0250345505300648  0.3243566837193291  0.3714969417943232
  0.1754357823282616  0.2742076411267945  0.6249928639657779
  0.7620104738308945  0.1668810795635968  0.1833035833894638
  0.9854292112115484  0.0918084604298113  0.5567219969131113
  0.4085978717346574  0.2056522438797713 -0.0033724708586687
  0.8515406657758985  0.0507164121767317  0.7536597307722884
  0.2713573877796216  0.0694533774651684  0.6267853232860822
  0.4944528449768458  0.0060700157028800  0.0045068774679691
  0.2762240025349679  0.9811656881855438  0.0592838667310275
  0.5037630669246845  0.9137583995359904  0.4434501492697564
  0.5818918596147216  0.8858111102033446  0.5609360774187727
  0.8259533600669883  0.8141268308481991  0.9376771727088734
  0.0854119233451093  0.9818419250070994  0.1311024090367859
  0.2822485803281260  0.8968618749237721  0.5023146972445179
  0.4443173392310419  0.8495229580511688  0.7542862303476466
  0.5178899970145827  0.8065452733815847  0.8694638779534272
  0.0738885312694442  0.8935266916652970  0.5645724272326879
  0.2324443564818075  0.8446322713927302  0.8134772522136006
  0.0358291711579051  0.8252220328507870  0.8833257715563954
  0.6818959915518162  0.6896725713049923  0.5662147593877355
  0.0042079046987278  0.5971530029302894  0.0594275725856808
  0.9378523719014599  0.4368720981747561  0.8125984137708971
  0.0615809072862095  0.5610734265952562  0.1860122616037501
  0.2053787309806784  0.5186306183084960  0.4394228678005870
  0.4462897543333853  0.4564381868285304  0.8129383158069671
  0.0224858552769270  0.4143423675703608  0.9385727043472589
  0.8800174362484617  0.3721134773248686  0.1287692112131820
  0.9540985596180530  0.3533564334602098  0.2482587706448283
  0.5829582312609667  0.3855413911615063  0.0641402340775431
  0.9598934218859811  0.2611299986818814  0.6843122466281002
  0.3810232780905771  0.3801297295106393  0.1238755084706317
  0.6741913122982544  0.2721630202689014  0.6238285097180122
  0.1617391650732903  0.3598448703099938  0.1833645311108355
  0.2606993590694739  0.2499420263872254  0.7499893281846222
  0.9022535458909555  0.1963461850777261 -0.0024685307859925
  0.9775825081693972  0.1733809947187991  0.1209091690905779
  0.9073353402305943  0.1167810221588673  0.4332839264037486
  0.2600919932140127  0.1635315414048252  0.1843475707082138
  0.1234869382664896  0.1196994674103440  0.3790620924279814
  0.9390359067556120  0.9431665644085060  0.3115476873019242
  0.5878095259921059  0.9736400487459969  0.1254469594877252
  0.7241093802620591  0.9249904794056164  0.3791040833925243
  0.4325828448142537  0.9365730973172203  0.3135037896242529
  0.7317088288992452  0.8380052795816461  0.8215605484745626
  0.2213954303670822  0.9197959511861955  0.3790824741647066
  0.9612925501566622  0.7605379623641846  0.1879599981282514
  0.7441405631638069  0.7528643671075627  0.2527548321395774
  0.3847856248474700  0.7868359900156221  0.0639681722088840
  0.5271785470044767  0.7372989518201046  0.3128089744051835
  0.6031072970064987  0.7156919007548578  0.4352577402603853
  0.7596636167807479  0.6654884229130307  0.6886727467023491
  0.9088654540559009  0.6002401517256850  0.9403990059446427
  0.3317545546583185  0.7233244477142896  0.3831039837734304
  0.3998150874309609  0.7004349582326349  0.5055287464846584
  0.4764380673863634  0.6798616375519337  0.6271114392995613
  0.1217804047099732  0.6248409389610841  0.8762479417519039
  0.6985326953020942  0.6083747201274449  0.0040496313935203
  0.5632244659410436  0.5667375213921823  0.1839652642666556
  0.6332014326430506  0.5426474752053096  0.3120508660815116
  0.7095195754271175  0.5138742336237209  0.4370798863339834
  0.4988430883636025  0.5095997542700793  0.4999258579529876
  0.6512596958203188  0.4509913748694661  0.7514932628355834
  0.1385166612956653  0.5384567716167233  0.3105807182215423
  0.0002465917348550  0.4984008884891569  0.4984025950480411
  0.1416807370477292  0.4390112513355980  0.7467805823294893
  0.8860085961824793  0.2901925566339644  0.5640109024814626
  0.5968891545856270  0.2949620617617109  0.5001057491730602
  0.7587020118147563  0.2506841847655126  0.7443051849785988
  0.0682951078831882  0.3843427550172567  0.0571590894287675
  0.4586320080972406  0.2589163847768573  0.6805433710881996
  0.3341489646930088  0.2274450988971279  0.8735505347855168
  0.8344583213889221  0.1386826356206932  0.3081200221767678
  0.6248263060027596  0.1223600998497032  0.3754090195727930
  0.4337176542988200  0.0167648930232584  0.8762528611228420
  0.1390382858690579  0.0319932691817777  0.8117764022734442
 
  0.00000000E+00  0.00000000E+00  0.00000000E+00
  0.00000000E+00  0.00000000E+00  0.00000000E+00
  0.00000000E+00  0.00000000E+00  0.00000000E+00
  0.00000000E+00  0.00000000E+00  0.00000000E+00
  0.00000000E+00  0.00000000E+00  0.00000000E+00
  0.00000000E+00  0.00000000E+00  0.00000000E+00
  0.00000000E+00  0.00000000E+00  0.00000000E+00
  0.00000000E+00  0.00000000E+00  0.00000000E+00
  0.00000000E+00  0.00000000E+00  0.00000000E+00
  0.00000000E+00  0.00000000E+00  0.00000000E+00
  0.00000000E+00  0.00000000E+00  0.00000000E+00
  0.00000000E+00  0.00000000E+00  0.00000000E+00
  0.00000000E+00  0.00000000E+00  0.00000000E+00
  0.00000000E+00  0.00000000E+00  0.00000000E+00
  0.00000000E+00  0.00000000E+00  0.00000000E+00
  0.00000000E+00  0.00000000E+00  0.00000000E+00
  0.00000000E+00  0.00000000E+00  0.00000000E+00
  0.00000000E+00  0.00000000E+00  0.00000000E+00
  0.00000000E+00  0.00000000E+00  0.00000000E+00
  0.00000000E+00  0.00000000E+00  0.00000000E+00
  0.00000000E+00  0.00000000E+00  0.00000000E+00
  0.00000000E+00  0.00000000E+00  0.00000000E+00
  0.00000000E+00  0.00000000E+00  0.00000000E+00
  0.00000000E+00  0.00000000E+00  0.00000000E+00
  0.00000000E+00  0.00000000E+00  0.00000000E+00
  0.00000000E+00  0.00000000E+00  0.00000000E+00
  0.00000000E+00  0.00000000E+00  0.00000000E+00
  0.00000000E+00  0.00000000E+00  0.00000000E+00
  0.00000000E+00  0.00000000E+00  0.00000000E+00
  0.00000000E+00  0.00000000E+00  0.00000000E+00
  0.00000000E+00  0.00000000E+00  0.00000000E+00
  0.00000000E+00  0.00000000E+00  0.00000000E+00
  0.00000000E+00  0.00000000E+00  0.00000000E+00
  0.00000000E+00  0.00000000E+00  0.00000000E+00
  0.00000000E+00  0.00000000E+00  0.00000000E+00
  0.00000000E+00  0.00000000E+00  0.00000000E+00
  0.00000000E+00  0.00000000E+00  0.00000000E+00
  0.00000000E+00  0.00000000E+00  0.00000000E+00
  0.00000000E+00  0.00000000E+00  0.00000000E+00
  0.00000000E+00  0.00000000E+00  0.00000000E+00
  0.00000000E+00  0.00000000E+00  0.00000000E+00
  0.00000000E+00  0.00000000E+00  0.00000000E+00
  0.00000000E+00  0.00000000E+00  0.00000000E+00
  0.00000000E+00  0.00000000E+00  0.00000000E+00
  0.00000000E+00  0.00000000E+00  0.00000000E+00
  0.00000000E+00  0.00000000E+00  0.00000000E+00
  0.00000000E+00  0.00000000E+00  0.00000000E+00
  0.00000000E+00  0.00000000E+00  0.00000000E+00
  0.00000000E+00  0.00000000E+00  0.00000000E+00
  0.00000000E+00  0.00000000E+00  0.00000000E+00
  0.00000000E+00  0.00000000E+00  0.00000000E+00
  0.00000000E+00  0.00000000E+00  0.00000000E+00
  0.00000000E+00  0.00000000E+00  0.00000000E+00
  0.00000000E+00  0.00000000E+00  0.00000000E+00
  0.00000000E+00  0.00000000E+00  0.00000000E+00
  0.00000000E+00  0.00000000E+00  0.00000000E+00
  0.00000000E+00  0.00000000E+00  0.00000000E+00
  0.00000000E+00  0.00000000E+00  0.00000000E+00
  0.00000000E+00  0.00000000E+00  0.00000000E+00
  0.00000000E+00  0.00000000E+00  0.00000000E+00
  0.00000000E+00  0.00000000E+00  0.00000000E+00
  0.00000000E+00  0.00000000E+00  0.00000000E+00
  0.00000000E+00  0.00000000E+00  0.00000000E+00
  0.00000000E+00  0.00000000E+00  0.00000000E+00
  0.00000000E+00  0.00000000E+00  0.00000000E+00
  0.00000000E+00  0.00000000E+00  0.00000000E+00
  0.00000000E+00  0.00000000E+00  0.00000000E+00
  0.00000000E+00  0.00000000E+00  0.00000000E+00
  0.00000000E+00  0.00000000E+00  0.00000000E+00
  0.00000000E+00  0.00000000E+00  0.00000000E+00
  0.00000000E+00  0.00000000E+00  0.00000000E+00
  0.00000000E+00  0.00000000E+00  0.00000000E+00
  0.00000000E+00  0.00000000E+00  0.00000000E+00
  0.00000000E+00  0.00000000E+00  0.00000000E+00
  0.00000000E+00  0.00000000E+00  0.00000000E+00
  0.00000000E+00  0.00000000E+00  0.00000000E+00
  0.00000000E+00  0.00000000E+00  0.00000000E+00
  0.00000000E+00  0.00000000E+00  0.00000000E+00
  0.00000000E+00  0.00000000E+00  0.00000000E+00
  0.00000000E+00  0.00000000E+00  0.00000000E+00
  0.00000000E+00  0.00000000E+00  0.00000000E+00
  0.00000000E+00  0.00000000E+00  0.00000000E+00
  0.00000000E+00  0.00000000E+00  0.00000000E+00
  0.00000000E+00  0.00000000E+00  0.00000000E+00
  0.00000000E+00  0.00000000E+00  0.00000000E+00
  0.00000000E+00  0.00000000E+00  0.00000000E+00
  0.00000000E+00  0.00000000E+00  0.00000000E+00
  0.00000000E+00  0.00000000E+00  0.00000000E+00
  0.00000000E+00  0.00000000E+00  0.00000000E+00
  0.00000000E+00  0.00000000E+00  0.00000000E+00
  0.00000000E+00  0.00000000E+00  0.00000000E+00
  0.00000000E+00  0.00000000E+00  0.00000000E+00
  0.00000000E+00  0.00000000E+00  0.00000000E+00
  0.00000000E+00  0.00000000E+00  0.00000000E+00
  0.00000000E+00  0.00000000E+00  0.00000000E+00
  0.00000000E+00  0.00000000E+00  0.00000000E+00
  0.00000000E+00  0.00000000E+00  0.00000000E+00
  0.00000000E+00  0.00000000E+00  0.00000000E+00
  0.00000000E+00  0.00000000E+00  0.00000000E+00
  0.00000000E+00  0.00000000E+00  0.00000000E+00
  0.00000000E+00  0.00000000E+00  0.00000000E+00
  0.00000000E+00  0.00000000E+00  0.00000000E+00
  0.00000000E+00  0.00000000E+00  0.00000000E+00
  0.00000000E+00  0.00000000E+00  0.00000000E+00
  0.00000000E+00  0.00000000E+00  0.00000000E+00
  0.00000000E+00  0.00000000E+00  0.00000000E+00
  0.00000000E+00  0.00000000E+00  0.00000000E+00
  0.00000000E+00  0.00000000E+00  0.00000000E+00
  0.00000000E+00  0.00000000E+00  0.00000000E+00
  0.00000000E+00  0.00000000E+00  0.00000000E+00
  0.00000000E+00  0.00000000E+00  0.00000000E+00
  0.00000000E+00  0.00000000E+00  0.00000000E+00
  0.00000000E+00  0.00000000E+00  0.00000000E+00
  0.00000000E+00  0.00000000E+00  0.00000000E+00
  0.00000000E+00  0.00000000E+00  0.00000000E+00
  0.00000000E+00  0.00000000E+00  0.00000000E+00
  0.00000000E+00  0.00000000E+00  0.00000000E+00
  0.00000000E+00  0.00000000E+00  0.00000000E+00
  0.00000000E+00  0.00000000E+00  0.00000000E+00
  0.00000000E+00  0.00000000E+00  0.00000000E+00
  0.00000000E+00  0.00000000E+00  0.00000000E+00
  0.00000000E+00  0.00000000E+00  0.00000000E+00
  0.00000000E+00  0.00000000E+00  0.00000000E+00
  0.00000000E+00  0.00000000E+00  0.00000000E+00
  0.00000000E+00  0.00000000E+00  0.00000000E+00
  0.00000000E+00  0.00000000E+00  0.00000000E+00
  0.00000000E+00  0.00000000E+00  0.00000000E+00
  0.00000000E+00  0.00000000E+00  0.00000000E+00
  0.00000000E+00  0.00000000E+00  0.00000000E+00
  0.00000000E+00  0.00000000E+00  0.00000000E+00
  0.00000000E+00  0.00000000E+00  0.00000000E+00
  0.00000000E+00  0.00000000E+00  0.00000000E+00
  0.00000000E+00  0.00000000E+00  0.00000000E+00
  0.00000000E+00  0.00000000E+00  0.00000000E+00
  0.00000000E+00  0.00000000E+00  0.00000000E+00
  0.00000000E+00  0.00000000E+00  0.00000000E+00
  0.00000000E+00  0.00000000E+00  0.00000000E+00
  0.00000000E+00  0.00000000E+00  0.00000000E+00
  0.00000000E+00  0.00000000E+00  0.00000000E+00
  0.00000000E+00  0.00000000E+00  0.00000000E+00
  0.00000000E+00  0.00000000E+00  0.00000000E+00
  0.00000000E+00  0.00000000E+00  0.00000000E+00
  0.00000000E+00  0.00000000E+00  0.00000000E+00
  0.00000000E+00  0.00000000E+00  0.00000000E+00
  0.00000000E+00  0.00000000E+00  0.00000000E+00
  0.00000000E+00  0.00000000E+00  0.00000000E+00
  0.00000000E+00  0.00000000E+00  0.00000000E+00
  0.00000000E+00  0.00000000E+00  0.00000000E+00
  0.00000000E+00  0.00000000E+00  0.00000000E+00
  0.00000000E+00  0.00000000E+00  0.00000000E+00
  0.00000000E+00  0.00000000E+00  0.00000000E+00
  0.00000000E+00  0.00000000E+00  0.00000000E+00
  0.00000000E+00  0.00000000E+00  0.00000000E+00
  0.00000000E+00  0.00000000E+00  0.00000000E+00
  0.00000000E+00  0.00000000E+00  0.00000000E+00
  0.00000000E+00  0.00000000E+00  0.00000000E+00
  0.00000000E+00  0.00000000E+00  0.00000000E+00
  0.00000000E+00  0.00000000E+00  0.00000000E+00
  0.00000000E+00  0.00000000E+00  0.00000000E+00
  0.00000000E+00  0.00000000E+00  0.00000000E+00
