FeNiCoCrPd_SQS160_bcc31_Ni36            
   1.00000000000000     
    -2.5675093804985547   10.9072501573768950   -2.5829735072144699
    -7.8012817883587839   -3.6435864512805067    5.2091210770476186
    10.3284380497066568    7.2867253095908371   12.8980417271077741
   Fe   Ni   Co   Cr   Pd
    31    36    31    31    31
Direct
  0.7914558451776272  0.9978280530828916  0.0657515882445130
  0.3714073899969088  0.8705841759023746  0.6240362706050491
  0.8171815822847895  0.7186738185785947  0.3731671562711386
  0.8336779700416985  0.6311815531920533  0.8064707826559938
  0.0291622620784590  0.7254883638649522  0.3112139450698711
  0.1149936083327330  0.6992503653039660  0.4320652062569394
  0.2618713704646031  0.6667870060597939  0.6923428930535334
  0.8477811780942475  0.5534915481640693  0.2483452798654256
  0.5812696801275925  0.4715099119634420  0.6244104000156661
  0.7201555317530489  0.4340567501183099  0.8748065520959325
  0.3535565745810227  0.4659770493531176  0.6899553358998454
  0.0683999486907138  0.4722389077392546  0.6319584676058425
  0.2240959303498595  0.4218795322234783  0.8721299978329613
  0.7413571042779454  0.3454670424002573  0.3080205965968352
  0.8134288795509060  0.3279475465475134  0.4385545752562083
  0.4489931004466352  0.3577396666764646  0.2479417249300335
  0.2402342440610024  0.3444137026199259  0.3168326385233934
  0.3156702624267412  0.3257748995218334  0.4383505102424375
  0.0458451906949341  0.2411690961678691  0.8129988410952730
  0.1215982422349624  0.2172199039414864  0.9366340555246409
  0.6926608221230132  0.1869736077108778  0.0700748408063249
  0.5560882735356335  0.1545195303939992  0.2464270974344320
  0.7773494879938420  0.0762374565807286  0.6280961739074664
  0.9272573146604560  0.0278522927369328  0.8706379806246352
  0.1969138083449163  0.1982494527867527  0.0604231629071883
  0.3366287192238401  0.1396684129495250  0.3126029444451580
  0.5644718681205722  0.0600451650716731  0.6862344860255241
  0.6421207992211371  0.0321491504533189  0.8032362304467603
  0.1996396260616426  0.1042694857700823  0.5057222961919253
  0.3437077028956617  0.0455079723181167  0.7486920148881616
  0.2187475173680211  0.0147688414688308  0.9360235282411955
  0.9278111311683933  0.9293473484334749  0.3152331469224813
  0.5780946787643682  0.9773541370028017  0.1213743057111845
  0.7225719370203731  0.9186939659805782  0.3723113809665518
  0.4365204416871270  0.9332932849584380  0.3147439080752816
  0.7355694275022070  0.8358093087496729  0.8102293393806439
  0.2286560023361429  0.9178192798442638  0.3770989709458263
  0.9552508528526504  0.7513108726054282  0.1868354950343208
  0.7483338195978577  0.7418830841350958  0.2523248270154366
  0.3905912711173583  0.7898339493488098  0.0630804125371471
  0.5337324953389776  0.7294879874884149  0.3112036145451643
  0.6070787373311101  0.7042624413826643  0.4345871354845198
  0.7612652952120297  0.6600865458720552  0.6832218046988906
  0.9135395988942228  0.6112620003027247  0.9327834470108710
  0.3265985743127986  0.7188250911568850  0.3779705865284404
  0.4012895868512799  0.6968486924869480  0.5003758263798413
  0.4713770588904062  0.6742332550534288  0.6244642584921940
  0.1226253308905418  0.6204471052790065  0.8716001938630941
  0.7018107164128022  0.5989260794180250  0.9970336548029144
  0.5609450220736630  0.5569517768277882  0.1882587017406266
  0.6384943289679061  0.5402581638574658  0.3107834560552425
  0.7133005218655828  0.5147130307266788  0.4369183077532100
  0.5029235990633398  0.5089366548677778  0.5024806960268270
  0.6546792345995501  0.4479886899018229  0.7477914962034778
  0.1337218840737839  0.5290744970587575  0.3132267868675585
  0.9945048924638556  0.4966200470487656  0.5001825375953127
  0.1498920001677060  0.4519387706076122  0.7517678404640953
  0.8873486028868349  0.2906815418669431  0.5658320903430206
  0.6061973680592644  0.3123687444853093  0.5013464570988825
  0.7503729309444275  0.2517864149626983  0.7458678745961934
  0.0931267136871211  0.3886488484164527  0.0618445112992509
  0.4648222246065590  0.2685312139256792  0.6890541619596071
  0.3238578033870512  0.2249804914675180  0.8751124977988020
  0.8333588584054299  0.1445675434286494  0.3194154458374986
  0.6296090808622449  0.1346596194085324  0.3719250453495966
  0.4196185103283370  0.0180933166285367  0.8722052474450741
  0.1398478300679751  0.0388184353227758  0.8166533860012726
  0.8679625396927857  0.8753853141105863  0.6289164437050417
  0.6638593317410627  0.8657624183409534  0.6861639886722137
  0.1699781889053520  0.8603843984992366  0.6934958766197115
  0.3090652799596995  0.8145051187750738  0.9338600718135552
  0.8900238177911028  0.7785736159450407  0.0566642406807128
  0.9686588717325607  0.6620851472326789  0.6296423160020961
  0.4586607668593185  0.7452283802109567  0.1850552464167224
  0.0964922752999875  0.7938398374245709  0.9928385456538751
  0.6362055382227580  0.6223369451331552  0.8739438865382110
  0.3284830527325163  0.6375399009938474  0.8109739980187903
  0.0508667194450401  0.6450555282127690  0.7489166359803462
  0.7768844500305488  0.5742155933437288  0.1294239380955872
  0.9245516740344750  0.5280669624162648  0.3735968038730089
  0.4840097366683619  0.5838835091730198  0.0616352027019262
  0.7884071902908355  0.4848923973730404  0.5665287828187280
  0.8598058103949450  0.4605024908951972  0.6860850818226094
  0.2817686891971966  0.5712656991749305  0.1233512346550164
  0.3540951472647167  0.5454360420736992  0.2507414527899492
  0.4237512665827202  0.5295155418482630  0.3737451493945798
  0.2888657694891699  0.4933728251733912  0.5711472785337796
  0.5093398240744188  0.4141622666754371  0.9419307390006202
  0.6677342666298023  0.3686402727925450  0.1886154633248893
  0.3036624605450812  0.3940516972959441  0.9991050991628719
  0.0236463631478845  0.3377318380610594  0.3789637249714288
  0.1720830069161264  0.2795792453140306  0.6299676462350488
  0.7648495231600511  0.1666295113276977  0.1895666370968183
  0.9856435070212664  0.0919389742244315  0.5677463162571758
  0.3911073509721150  0.1985261879868296  0.9949910683256079
  0.8460547579459985  0.0492398336088314  0.7484430694499055
  0.2771390669245427  0.0760050402371883  0.6288652476105486
  0.4857138226780088  0.9880597400295392  0.9972245095633531
  0.2821243081521649  0.9871515183816526  0.0544537795659956
  0.5126161890436564  0.9009528151754042  0.4348884744109964
  0.5816799707782346  0.8790860685129913  0.5671144525446000
  0.8189364379955734  0.8060493033573057  0.9299827980681267
  0.0826673955684389  0.9819275552252864  0.1224611840154743
  0.2884452695448917  0.8931405903253431  0.5002568067981137
  0.4544386664277699  0.8487343609025555  0.7471739158866172
  0.5141724156692320  0.8265626826908867  0.8702452942358002
  0.0907580283154777  0.8880383278390996  0.5664066281748911
  0.2323382767399416  0.8344913075818876  0.8162146124600973
  0.0324717784158312  0.8139508027749762  0.8728978958744327
  0.6828821237823739  0.6867914054896574  0.5616993610698624
  0.9824475507162129  0.5919505247798394  0.0599262151058145
  0.9419376302925108  0.4440029396983731  0.8059108276612571
  0.0573996577489497  0.5548828187208081  0.1871770088229235
  0.2158550353087686  0.5118916688598434  0.4359819490600266
  0.4395795468826420  0.4307434793038408  0.8111501516345671
  0.0146155955822473  0.4158112883453870  0.9402728393385430
  0.8891442244442137  0.3751474705679222  0.1300131028348781
  0.9416429861863416  0.3532628292244288  0.2607907880395535
  0.5805821627271364  0.4005821032592727  0.0653866439550545
  0.9604856899600906  0.2647817197393100  0.6907831582652928
  0.3723719163363748  0.3851899286225017  0.1221477184148474
  0.6792947181320311  0.2788187580614855  0.6263880751622396
  0.1592444129079968  0.3679326618590337  0.1874423416448676
  0.2548978666358205  0.2579080871839041  0.7509925248778011
  0.9106804380314948  0.2074516708856492  0.9958863077459121
  0.9842219841744890  0.1866508591989857  0.1261593729605286
  0.9173175948273629  0.1134310419255349  0.4336547016410277
  0.2594254133706359  0.1707424598325213  0.1912301901546347
  0.1363160487316490  0.1307411789555032  0.3788777733026967
  0.8661502465625459  0.9606412022462736  0.1866447550821686
  0.6432998145892764  0.9495032768576084  0.2522953953113234
  0.7963319849542491  0.8987650692893308  0.5003523707720875
  0.9504170056562286  0.8444473530529900  0.7509420362001800
  0.3682429345130573  0.9630779121283481  0.1884080680135382
  0.1429133276429292  0.9478759446273289  0.2552336686588919
  0.0203276556082329  0.9138102658435249  0.4374952756512749
  0.6021032994180358  0.7995321641569573  0.9976912188326142
  0.6743973222669369  0.7650177476093651  0.1246649852941365
  0.9014399979292443  0.6936677399009550  0.5036273344284422
  0.1693451213160664  0.7709851263845435  0.1233892383241823
  0.2497143999929868  0.7374378454712721  0.2532088827751401
  0.5488734766743359  0.6450970597625102  0.7495430042579982
  0.1832621620916611  0.6809875946113757  0.5643161169504566
  0.4151943563586446  0.6092897709698694  0.9314299069067081
  0.2007820218606678  0.5977085351909387  0.9971605305088633
  0.7990277810990432  0.4034687300394658  0.0046687149492244
  0.5276048377568457  0.3347662411850214  0.3737273656108347
  0.8283833510075510  0.2327549741599496  0.8698655940849284
  0.3871363469517008  0.2971290326277972  0.5653037171417609
  0.5360389852613294  0.2344161909512576  0.8107774143012657
  0.6028335695460010  0.2094738650025974  0.9424336648141136
  0.1019967879701654  0.3066612637946446  0.5032126457906134
  0.4727810387577697  0.1792898941437084  0.1199539088183351
  0.7029961554646165  0.1083975804232689  0.4975083176317235
  0.4121133802814202  0.1106323692976107  0.4351713625384749
  0.4853331655674293  0.0840675379260008  0.5654130955429607
  0.7166424601710760  0.0115488072961967  0.9353110500217539
  0.0476618820291616  0.1603742545956305  0.2565896160280684
  0.0662202262463568  0.0652021473585710  0.6886080892894023
  0.0030133067669755  0.0004975099390249  0.9976436435656665
 
  0.00000000E+00  0.00000000E+00  0.00000000E+00
  0.00000000E+00  0.00000000E+00  0.00000000E+00
  0.00000000E+00  0.00000000E+00  0.00000000E+00
  0.00000000E+00  0.00000000E+00  0.00000000E+00
  0.00000000E+00  0.00000000E+00  0.00000000E+00
  0.00000000E+00  0.00000000E+00  0.00000000E+00
  0.00000000E+00  0.00000000E+00  0.00000000E+00
  0.00000000E+00  0.00000000E+00  0.00000000E+00
  0.00000000E+00  0.00000000E+00  0.00000000E+00
  0.00000000E+00  0.00000000E+00  0.00000000E+00
  0.00000000E+00  0.00000000E+00  0.00000000E+00
  0.00000000E+00  0.00000000E+00  0.00000000E+00
  0.00000000E+00  0.00000000E+00  0.00000000E+00
  0.00000000E+00  0.00000000E+00  0.00000000E+00
  0.00000000E+00  0.00000000E+00  0.00000000E+00
  0.00000000E+00  0.00000000E+00  0.00000000E+00
  0.00000000E+00  0.00000000E+00  0.00000000E+00
  0.00000000E+00  0.00000000E+00  0.00000000E+00
  0.00000000E+00  0.00000000E+00  0.00000000E+00
  0.00000000E+00  0.00000000E+00  0.00000000E+00
  0.00000000E+00  0.00000000E+00  0.00000000E+00
  0.00000000E+00  0.00000000E+00  0.00000000E+00
  0.00000000E+00  0.00000000E+00  0.00000000E+00
  0.00000000E+00  0.00000000E+00  0.00000000E+00
  0.00000000E+00  0.00000000E+00  0.00000000E+00
  0.00000000E+00  0.00000000E+00  0.00000000E+00
  0.00000000E+00  0.00000000E+00  0.00000000E+00
  0.00000000E+00  0.00000000E+00  0.00000000E+00
  0.00000000E+00  0.00000000E+00  0.00000000E+00
  0.00000000E+00  0.00000000E+00  0.00000000E+00
  0.00000000E+00  0.00000000E+00  0.00000000E+00
  0.00000000E+00  0.00000000E+00  0.00000000E+00
  0.00000000E+00  0.00000000E+00  0.00000000E+00
  0.00000000E+00  0.00000000E+00  0.00000000E+00
  0.00000000E+00  0.00000000E+00  0.00000000E+00
  0.00000000E+00  0.00000000E+00  0.00000000E+00
  0.00000000E+00  0.00000000E+00  0.00000000E+00
  0.00000000E+00  0.00000000E+00  0.00000000E+00
  0.00000000E+00  0.00000000E+00  0.00000000E+00
  0.00000000E+00  0.00000000E+00  0.00000000E+00
  0.00000000E+00  0.00000000E+00  0.00000000E+00
  0.00000000E+00  0.00000000E+00  0.00000000E+00
  0.00000000E+00  0.00000000E+00  0.00000000E+00
  0.00000000E+00  0.00000000E+00  0.00000000E+00
  0.00000000E+00  0.00000000E+00  0.00000000E+00
  0.00000000E+00  0.00000000E+00  0.00000000E+00
  0.00000000E+00  0.00000000E+00  0.00000000E+00
  0.00000000E+00  0.00000000E+00  0.00000000E+00
  0.00000000E+00  0.00000000E+00  0.00000000E+00
  0.00000000E+00  0.00000000E+00  0.00000000E+00
  0.00000000E+00  0.00000000E+00  0.00000000E+00
  0.00000000E+00  0.00000000E+00  0.00000000E+00
  0.00000000E+00  0.00000000E+00  0.00000000E+00
  0.00000000E+00  0.00000000E+00  0.00000000E+00
  0.00000000E+00  0.00000000E+00  0.00000000E+00
  0.00000000E+00  0.00000000E+00  0.00000000E+00
  0.00000000E+00  0.00000000E+00  0.00000000E+00
  0.00000000E+00  0.00000000E+00  0.00000000E+00
  0.00000000E+00  0.00000000E+00  0.00000000E+00
  0.00000000E+00  0.00000000E+00  0.00000000E+00
  0.00000000E+00  0.00000000E+00  0.00000000E+00
  0.00000000E+00  0.00000000E+00  0.00000000E+00
  0.00000000E+00  0.00000000E+00  0.00000000E+00
  0.00000000E+00  0.00000000E+00  0.00000000E+00
  0.00000000E+00  0.00000000E+00  0.00000000E+00
  0.00000000E+00  0.00000000E+00  0.00000000E+00
  0.00000000E+00  0.00000000E+00  0.00000000E+00
  0.00000000E+00  0.00000000E+00  0.00000000E+00
  0.00000000E+00  0.00000000E+00  0.00000000E+00
  0.00000000E+00  0.00000000E+00  0.00000000E+00
  0.00000000E+00  0.00000000E+00  0.00000000E+00
  0.00000000E+00  0.00000000E+00  0.00000000E+00
  0.00000000E+00  0.00000000E+00  0.00000000E+00
  0.00000000E+00  0.00000000E+00  0.00000000E+00
  0.00000000E+00  0.00000000E+00  0.00000000E+00
  0.00000000E+00  0.00000000E+00  0.00000000E+00
  0.00000000E+00  0.00000000E+00  0.00000000E+00
  0.00000000E+00  0.00000000E+00  0.00000000E+00
  0.00000000E+00  0.00000000E+00  0.00000000E+00
  0.00000000E+00  0.00000000E+00  0.00000000E+00
  0.00000000E+00  0.00000000E+00  0.00000000E+00
  0.00000000E+00  0.00000000E+00  0.00000000E+00
  0.00000000E+00  0.00000000E+00  0.00000000E+00
  0.00000000E+00  0.00000000E+00  0.00000000E+00
  0.00000000E+00  0.00000000E+00  0.00000000E+00
  0.00000000E+00  0.00000000E+00  0.00000000E+00
  0.00000000E+00  0.00000000E+00  0.00000000E+00
  0.00000000E+00  0.00000000E+00  0.00000000E+00
  0.00000000E+00  0.00000000E+00  0.00000000E+00
  0.00000000E+00  0.00000000E+00  0.00000000E+00
  0.00000000E+00  0.00000000E+00  0.00000000E+00
  0.00000000E+00  0.00000000E+00  0.00000000E+00
  0.00000000E+00  0.00000000E+00  0.00000000E+00
  0.00000000E+00  0.00000000E+00  0.00000000E+00
  0.00000000E+00  0.00000000E+00  0.00000000E+00
  0.00000000E+00  0.00000000E+00  0.00000000E+00
  0.00000000E+00  0.00000000E+00  0.00000000E+00
  0.00000000E+00  0.00000000E+00  0.00000000E+00
  0.00000000E+00  0.00000000E+00  0.00000000E+00
  0.00000000E+00  0.00000000E+00  0.00000000E+00
  0.00000000E+00  0.00000000E+00  0.00000000E+00
  0.00000000E+00  0.00000000E+00  0.00000000E+00
  0.00000000E+00  0.00000000E+00  0.00000000E+00
  0.00000000E+00  0.00000000E+00  0.00000000E+00
  0.00000000E+00  0.00000000E+00  0.00000000E+00
  0.00000000E+00  0.00000000E+00  0.00000000E+00
  0.00000000E+00  0.00000000E+00  0.00000000E+00
  0.00000000E+00  0.00000000E+00  0.00000000E+00
  0.00000000E+00  0.00000000E+00  0.00000000E+00
  0.00000000E+00  0.00000000E+00  0.00000000E+00
  0.00000000E+00  0.00000000E+00  0.00000000E+00
  0.00000000E+00  0.00000000E+00  0.00000000E+00
  0.00000000E+00  0.00000000E+00  0.00000000E+00
  0.00000000E+00  0.00000000E+00  0.00000000E+00
  0.00000000E+00  0.00000000E+00  0.00000000E+00
  0.00000000E+00  0.00000000E+00  0.00000000E+00
  0.00000000E+00  0.00000000E+00  0.00000000E+00
  0.00000000E+00  0.00000000E+00  0.00000000E+00
  0.00000000E+00  0.00000000E+00  0.00000000E+00
  0.00000000E+00  0.00000000E+00  0.00000000E+00
  0.00000000E+00  0.00000000E+00  0.00000000E+00
  0.00000000E+00  0.00000000E+00  0.00000000E+00
  0.00000000E+00  0.00000000E+00  0.00000000E+00
  0.00000000E+00  0.00000000E+00  0.00000000E+00
  0.00000000E+00  0.00000000E+00  0.00000000E+00
  0.00000000E+00  0.00000000E+00  0.00000000E+00
  0.00000000E+00  0.00000000E+00  0.00000000E+00
  0.00000000E+00  0.00000000E+00  0.00000000E+00
  0.00000000E+00  0.00000000E+00  0.00000000E+00
  0.00000000E+00  0.00000000E+00  0.00000000E+00
  0.00000000E+00  0.00000000E+00  0.00000000E+00
  0.00000000E+00  0.00000000E+00  0.00000000E+00
  0.00000000E+00  0.00000000E+00  0.00000000E+00
  0.00000000E+00  0.00000000E+00  0.00000000E+00
  0.00000000E+00  0.00000000E+00  0.00000000E+00
  0.00000000E+00  0.00000000E+00  0.00000000E+00
  0.00000000E+00  0.00000000E+00  0.00000000E+00
  0.00000000E+00  0.00000000E+00  0.00000000E+00
  0.00000000E+00  0.00000000E+00  0.00000000E+00
  0.00000000E+00  0.00000000E+00  0.00000000E+00
  0.00000000E+00  0.00000000E+00  0.00000000E+00
  0.00000000E+00  0.00000000E+00  0.00000000E+00
  0.00000000E+00  0.00000000E+00  0.00000000E+00
  0.00000000E+00  0.00000000E+00  0.00000000E+00
  0.00000000E+00  0.00000000E+00  0.00000000E+00
  0.00000000E+00  0.00000000E+00  0.00000000E+00
  0.00000000E+00  0.00000000E+00  0.00000000E+00
  0.00000000E+00  0.00000000E+00  0.00000000E+00
  0.00000000E+00  0.00000000E+00  0.00000000E+00
  0.00000000E+00  0.00000000E+00  0.00000000E+00
  0.00000000E+00  0.00000000E+00  0.00000000E+00
  0.00000000E+00  0.00000000E+00  0.00000000E+00
  0.00000000E+00  0.00000000E+00  0.00000000E+00
  0.00000000E+00  0.00000000E+00  0.00000000E+00
  0.00000000E+00  0.00000000E+00  0.00000000E+00
  0.00000000E+00  0.00000000E+00  0.00000000E+00
  0.00000000E+00  0.00000000E+00  0.00000000E+00
  0.00000000E+00  0.00000000E+00  0.00000000E+00
  0.00000000E+00  0.00000000E+00  0.00000000E+00
  0.00000000E+00  0.00000000E+00  0.00000000E+00
