FeNiCoCrPd_SQSbcc24_Pd64                
   3.00000000000000     
     2.5097091554912079    0.4484283984882618    3.6363606900496377
     2.6275638721908381   -3.1066387912447544   -0.6034005820699861
     2.6869702930138102    2.2139638303367457   -2.7172243551555142
   Fe   Ni   Co   Cr   Pd
    24    24    24    24    64
Direct
  0.3224334350346361  0.0599174405093597  0.0050089048433809
  0.8746963292024742  0.3661958274538770  0.1403701164734210
  0.1184371078872198  0.1320354758405066  0.3757309868791778
  0.3090909810946317  0.0475457050023064  0.3975811529243584
  0.2620243013949851  0.2247131529750900  0.2771892101901141
  0.6284731832738618  0.1015499342653985  0.4265451902661346
  0.6826510750388233  0.4548326446229344  0.2858143975152577
  0.8806522990468035  0.3513545147833929  0.3312244440619370
  0.3132180115791153  0.0377106743364989  0.6082272946403230
  0.4276872939293547  0.1953508975699194  0.6088523800636497
  0.8120814850070944  0.0824623340246259  0.7516397249210574
  0.9466241626098507  0.1775892639378358  0.6484056263243431
  0.8207525848326546  0.5388807828494209  0.3984946965318353
  0.5539158744623032  0.8264683369148542  0.2376528135426083
  0.7528812915273445  0.7297996048766147  0.2682361942240090
  0.3211477158533682  0.0522477631269988  0.7991336436446165
  0.6181805311513117  0.1086252510786201  0.8291777770020993
  0.1961243479268682  0.4237649763885477  0.5558507420552135
  0.6189195871416951  0.6466290010762432  0.7712997839732342
  0.6909358729717580  0.9229123249345303  0.5487603083525597
  0.9880610000218928  0.5205578871028204  0.9233158387407737
  0.2084914486273892  0.4114803839415431  0.9503862339100643
  0.5526891287814023  0.8434221529698780  0.8499697607190735
  0.3876312165526816  0.8642849866000494  0.9245740727883146
  0.4967106689250089  0.0144317052854944  0.1178093648500649
  0.3018119663048089  0.0528749908166812  0.1982142115438454
  0.2547455006441580  0.2361043452186001  0.0717331814085576
  0.3706599404364983  0.3898706147746145  0.0698753807648826
  0.7474806078662324  0.2732742171804539  0.2239713287020364
  0.9433445544616949  0.1748108474329418  0.2588203315330233
  0.9455877479889082  0.1694314038673708  0.4547585773789543
  0.2411377757943291  0.7686058282487984  0.0287901977789520
  0.6239743314621142  0.6441087862233321  0.1711026037869432
  0.8603797307104878  0.8949053907827986  0.0681752933649476
  0.3656880564051897  0.3882695255208284  0.4699081425208162
  0.3058077507672535  0.5816193739458811  0.3484059304062619
  0.5109794896430715  0.4791280932273266  0.3730171770560465
  0.8789765002384320  0.3609841056260050  0.5279378566053972
  0.9394557871758916  0.6939216321947781  0.4014653013363838
  0.1279260949807747  0.1385759896959407  0.7747499921505346
  0.8017420170525592  0.0707566673848801  0.9470918249132722
  0.8207541674816954  0.5411084306489720  0.5941324602525786
  0.2635109676807026  0.2301964700099746  0.8781670268535433
  0.4283226208959054  0.2061133729870549  0.9927271660547498
  0.3735450518964691  0.3815394934520240  0.8783302073123476
  0.5608676741141877  0.2970837117658143  0.9022906577923726
  0.1815164966604424  0.9503442276054576  0.4988916244941739
  0.5534153970703126  0.8349775324950540  0.6568193975810023
  0.8066307869703696  0.0785326587491962  0.1428538022861054
  0.5039512429029356  0.4849652062650850  0.9830892956300140
  0.6784196338681049  0.4558882357092887  0.1046106401116600
  0.0161202696466888  0.9908048884251529  0.3844948967368538
  0.4203897322191630  0.1999144228996272  0.3949021643830360
  0.9921899245501463  0.5068707503707197  0.1207216687900300
  0.5137596533761218  0.4898300048320829  0.1771045497218549
  0.8088836089254798  0.5421850145199276  0.2068869143385182
  0.5604453169103637  0.8319718786885936  0.0511383832180916
  0.7485357655751023  0.7389292631822872  0.0829948837188123
  0.0124823897394130  0.9871715985192474  0.5774568996234881
  0.4898750256101131  0.0225956074038253  0.7260371048823397
  0.7617394577317890  0.2540013214583802  0.6281505433069461
  0.2420020669886664  0.7714285304397661  0.2222367592702948
  0.1832070899813729  0.9469998009554128  0.1086866251789156
  0.2614855118116277  0.2219612189459912  0.6858888574553129
  0.4290289765964383  0.1995716728337026  0.8025866303774971
  0.1288756507876284  0.6134986441045575  0.4276195336793965
  0.8827300850334767  0.3491827162295531  0.7231071343610354
  0.2370821750810133  0.7678022196647000  0.4222251288744541
  0.1784662138650556  0.9568211824468709  0.3021800859569192
  0.0787617938106533  0.7922503871671760  0.5026443508217754
  0.9303385298764705  0.7007228620148152  0.7991278745625371
  0.1911023327679793  0.9569314572145536  0.6995953564633894
  0.1190374613680690  0.1346263701389439  0.1737599051807696
  0.0547150530419493  0.3321474710375515  0.0469311629018336
  0.8181900163706425  0.0797270760883877  0.5444271383736059
  0.5657881212669368  0.2988250245169096  0.2994283221771660
  0.1949615851592822  0.4263990482558080  0.3571677570710085
  0.6819942626769260  0.4462383229568446  0.4985372895214986
  0.0652805643520618  0.7975383573671690  0.1025976675900201
  0.6911723240906504  0.9267167148209110  0.1395890791926482
  0.0152777188728726  0.9930326814656708  0.7773514118552882
  0.4860427937738700  0.0161643777020939  0.9242747726630681
  0.9985379306010219  0.5157014966388481  0.5287294914802989
  0.9476913940033039  0.1649337435619741  0.8433156033250070
  0.4383477709907090  0.6708575468635419  0.4482678011096269
  0.9822395189673852  0.5090741704536816  0.7180657642087395
  0.2040815232523057  0.4097571243300915  0.7572316585063144
  0.1262001210121262  0.6070103559850435  0.6124397729060068
  0.6702825461491266  0.4541320534050324  0.9025215188200604
  0.8885350739028771  0.3645786104770817  0.9337293520011104
  0.2547719084703839  0.7784076332592353  0.6230206968088087
  0.3699532358980815  0.8631093696542192  0.5216845468407101
  0.2470389761756202  0.7690352147485989  0.8223149690898321
  0.3863298214363884  0.8716482488261162  0.7296060330650019
  0.8732475385480847  0.8977261729378514  0.8707524244675817
  0.6899713591865066  0.9183018586038335  0.9618626643074877
  0.0015876107966135  0.9854351988033687  0.9788365529975557
  0.6250342092320650  0.1119111834569674  0.0209402355197666
  0.7455673862091381  0.2730805726518052  0.0281242256485504
  0.9412522826045547  0.1791828378293164  0.0531585989864515
  0.0044898333487537  0.9877485395955578  0.1824683613206210
  0.4861139667582992  0.0175789261109119  0.3172644370090611
  0.4257784423730205  0.2008277901572523  0.1887770923949632
  0.6329742188655134  0.1135900174536949  0.2259814648250237
  0.8145105448152830  0.0804939549344551  0.3450872457888757
  0.5632819754844811  0.3067725598038274  0.1003885420223279
  0.8155914569612848  0.5428094694694183  0.0108552067471678
  0.4861803224784605  0.0188313717509367  0.5265928570717416
  0.0607678562044743  0.3183570623251517  0.2479413284880014
  0.1948099516496252  0.4136898881534352  0.1517401846446705
  0.3740575998062740  0.3909809013720829  0.2768688318583624
  0.7448392310544574  0.2664470218684257  0.4249165584257901
  0.1269208935338465  0.6030454054462324  0.0246226836906544
  0.3088428143570940  0.5799143572607206  0.1479575384129904
  0.4437769371405521  0.6776446899117078  0.0516355910521118
  0.9252510616040890  0.6981191257775147  0.1969270323516195
  0.1225884889316720  0.1334412107351811  0.5753082773832904
  0.0566676177175941  0.3267045471768369  0.4508819959713189
  0.2592382973357683  0.2320645586847963  0.4813134270191736
  0.6380455233559844  0.1083237769644495  0.6245947310709178
  0.9910204956558254  0.5125230238425295  0.3233203996071015
  0.5587421668266627  0.2904890150411205  0.4957684236580309
  0.1302562447423353  0.6089833544573560  0.2292377154640314
  0.4430408511858518  0.6699574424116114  0.2544507547220003
  0.6241712473538593  0.6330081900327162  0.3678375102777877
  0.3755893175300156  0.8715326704399978  0.1187375096768053
  0.8623904272626332  0.8888651447325405  0.2663317506649724
  0.0644162492790330  0.3282529380583634  0.6511183659317942
  0.3657863572237886  0.3815714876680690  0.6715055426537427
  0.5669247931539578  0.2879540887389607  0.7084627221876177
  0.7532765578074035  0.2611690187949819  0.8286802580614834
  0.3007302035545106  0.5819227927085424  0.5391159421770459
  0.5019110206837782  0.4835661904812735  0.5697463461387025
  0.6872825498068339  0.4447509648428405  0.6952944770232830
  0.0683614845786704  0.7995958310739032  0.3080229251674853
  0.6236684072466853  0.6367925251400782  0.5726294575208819
  0.3678156060277606  0.8618728601366166  0.3259906984803397
  0.5517996640401061  0.8260392068888097  0.4504296832716930
  0.7647221169665200  0.7272572225717483  0.4692710496905893
  0.9391575449075825  0.6991597665113598  0.6009841440780342
  0.6867055245154108  0.9177729198340235  0.3476024816809298
  0.8809347021144052  0.8912838139111084  0.4720925116867445
  0.1252122018861307  0.1413354951480894  0.9768511691814203
  0.0600054888836014  0.3322693140488222  0.8512856392550864
  0.3002021549261130  0.5809416467564132  0.7421159503981262
  0.5057321558133494  0.4843622238852124  0.7821271238252048
  0.4433473001317769  0.6813946473392836  0.6468359743249384
  0.8168347060355501  0.5421765890899433  0.8017577945968379
  0.7545041727626648  0.7385930990225515  0.6744672552451434
  0.8737190239018229  0.9012088410374502  0.6742671655209675
  0.1194098057578353  0.5976185881911477  0.8177670381830078
  0.3075656446405258  0.5756152238763131  0.9446502057177503
  0.0775486875432932  0.8021368397033311  0.6954480768701339
  0.4428836398065051  0.6822156915657313  0.8492928087368151
  0.6191374293095154  0.6436017736387240  0.9747259483697246
  0.7513259171159439  0.7409610797949113  0.8784999453875193
  0.9284525223215921  0.7070164623670742  0.9968447199190739
  0.6893666407842939  0.9295478967278722  0.7567095715992956
  0.0696926603507232  0.7965104425437097  0.8992481854245173
  0.1958547771463184  0.9512900485419771  0.9027183386803629
 
  0.00000000E+00  0.00000000E+00  0.00000000E+00
  0.00000000E+00  0.00000000E+00  0.00000000E+00
  0.00000000E+00  0.00000000E+00  0.00000000E+00
  0.00000000E+00  0.00000000E+00  0.00000000E+00
  0.00000000E+00  0.00000000E+00  0.00000000E+00
  0.00000000E+00  0.00000000E+00  0.00000000E+00
  0.00000000E+00  0.00000000E+00  0.00000000E+00
  0.00000000E+00  0.00000000E+00  0.00000000E+00
  0.00000000E+00  0.00000000E+00  0.00000000E+00
  0.00000000E+00  0.00000000E+00  0.00000000E+00
  0.00000000E+00  0.00000000E+00  0.00000000E+00
  0.00000000E+00  0.00000000E+00  0.00000000E+00
  0.00000000E+00  0.00000000E+00  0.00000000E+00
  0.00000000E+00  0.00000000E+00  0.00000000E+00
  0.00000000E+00  0.00000000E+00  0.00000000E+00
  0.00000000E+00  0.00000000E+00  0.00000000E+00
  0.00000000E+00  0.00000000E+00  0.00000000E+00
  0.00000000E+00  0.00000000E+00  0.00000000E+00
  0.00000000E+00  0.00000000E+00  0.00000000E+00
  0.00000000E+00  0.00000000E+00  0.00000000E+00
  0.00000000E+00  0.00000000E+00  0.00000000E+00
  0.00000000E+00  0.00000000E+00  0.00000000E+00
  0.00000000E+00  0.00000000E+00  0.00000000E+00
  0.00000000E+00  0.00000000E+00  0.00000000E+00
  0.00000000E+00  0.00000000E+00  0.00000000E+00
  0.00000000E+00  0.00000000E+00  0.00000000E+00
  0.00000000E+00  0.00000000E+00  0.00000000E+00
  0.00000000E+00  0.00000000E+00  0.00000000E+00
  0.00000000E+00  0.00000000E+00  0.00000000E+00
  0.00000000E+00  0.00000000E+00  0.00000000E+00
  0.00000000E+00  0.00000000E+00  0.00000000E+00
  0.00000000E+00  0.00000000E+00  0.00000000E+00
  0.00000000E+00  0.00000000E+00  0.00000000E+00
  0.00000000E+00  0.00000000E+00  0.00000000E+00
  0.00000000E+00  0.00000000E+00  0.00000000E+00
  0.00000000E+00  0.00000000E+00  0.00000000E+00
  0.00000000E+00  0.00000000E+00  0.00000000E+00
  0.00000000E+00  0.00000000E+00  0.00000000E+00
  0.00000000E+00  0.00000000E+00  0.00000000E+00
  0.00000000E+00  0.00000000E+00  0.00000000E+00
  0.00000000E+00  0.00000000E+00  0.00000000E+00
  0.00000000E+00  0.00000000E+00  0.00000000E+00
  0.00000000E+00  0.00000000E+00  0.00000000E+00
  0.00000000E+00  0.00000000E+00  0.00000000E+00
  0.00000000E+00  0.00000000E+00  0.00000000E+00
  0.00000000E+00  0.00000000E+00  0.00000000E+00
  0.00000000E+00  0.00000000E+00  0.00000000E+00
  0.00000000E+00  0.00000000E+00  0.00000000E+00
  0.00000000E+00  0.00000000E+00  0.00000000E+00
  0.00000000E+00  0.00000000E+00  0.00000000E+00
  0.00000000E+00  0.00000000E+00  0.00000000E+00
  0.00000000E+00  0.00000000E+00  0.00000000E+00
  0.00000000E+00  0.00000000E+00  0.00000000E+00
  0.00000000E+00  0.00000000E+00  0.00000000E+00
  0.00000000E+00  0.00000000E+00  0.00000000E+00
  0.00000000E+00  0.00000000E+00  0.00000000E+00
  0.00000000E+00  0.00000000E+00  0.00000000E+00
  0.00000000E+00  0.00000000E+00  0.00000000E+00
  0.00000000E+00  0.00000000E+00  0.00000000E+00
  0.00000000E+00  0.00000000E+00  0.00000000E+00
  0.00000000E+00  0.00000000E+00  0.00000000E+00
  0.00000000E+00  0.00000000E+00  0.00000000E+00
  0.00000000E+00  0.00000000E+00  0.00000000E+00
  0.00000000E+00  0.00000000E+00  0.00000000E+00
  0.00000000E+00  0.00000000E+00  0.00000000E+00
  0.00000000E+00  0.00000000E+00  0.00000000E+00
  0.00000000E+00  0.00000000E+00  0.00000000E+00
  0.00000000E+00  0.00000000E+00  0.00000000E+00
  0.00000000E+00  0.00000000E+00  0.00000000E+00
  0.00000000E+00  0.00000000E+00  0.00000000E+00
  0.00000000E+00  0.00000000E+00  0.00000000E+00
  0.00000000E+00  0.00000000E+00  0.00000000E+00
  0.00000000E+00  0.00000000E+00  0.00000000E+00
  0.00000000E+00  0.00000000E+00  0.00000000E+00
  0.00000000E+00  0.00000000E+00  0.00000000E+00
  0.00000000E+00  0.00000000E+00  0.00000000E+00
  0.00000000E+00  0.00000000E+00  0.00000000E+00
  0.00000000E+00  0.00000000E+00  0.00000000E+00
  0.00000000E+00  0.00000000E+00  0.00000000E+00
  0.00000000E+00  0.00000000E+00  0.00000000E+00
  0.00000000E+00  0.00000000E+00  0.00000000E+00
  0.00000000E+00  0.00000000E+00  0.00000000E+00
  0.00000000E+00  0.00000000E+00  0.00000000E+00
  0.00000000E+00  0.00000000E+00  0.00000000E+00
  0.00000000E+00  0.00000000E+00  0.00000000E+00
  0.00000000E+00  0.00000000E+00  0.00000000E+00
  0.00000000E+00  0.00000000E+00  0.00000000E+00
  0.00000000E+00  0.00000000E+00  0.00000000E+00
  0.00000000E+00  0.00000000E+00  0.00000000E+00
  0.00000000E+00  0.00000000E+00  0.00000000E+00
  0.00000000E+00  0.00000000E+00  0.00000000E+00
  0.00000000E+00  0.00000000E+00  0.00000000E+00
  0.00000000E+00  0.00000000E+00  0.00000000E+00
  0.00000000E+00  0.00000000E+00  0.00000000E+00
  0.00000000E+00  0.00000000E+00  0.00000000E+00
  0.00000000E+00  0.00000000E+00  0.00000000E+00
  0.00000000E+00  0.00000000E+00  0.00000000E+00
  0.00000000E+00  0.00000000E+00  0.00000000E+00
  0.00000000E+00  0.00000000E+00  0.00000000E+00
  0.00000000E+00  0.00000000E+00  0.00000000E+00
  0.00000000E+00  0.00000000E+00  0.00000000E+00
  0.00000000E+00  0.00000000E+00  0.00000000E+00
  0.00000000E+00  0.00000000E+00  0.00000000E+00
  0.00000000E+00  0.00000000E+00  0.00000000E+00
  0.00000000E+00  0.00000000E+00  0.00000000E+00
  0.00000000E+00  0.00000000E+00  0.00000000E+00
  0.00000000E+00  0.00000000E+00  0.00000000E+00
  0.00000000E+00  0.00000000E+00  0.00000000E+00
  0.00000000E+00  0.00000000E+00  0.00000000E+00
  0.00000000E+00  0.00000000E+00  0.00000000E+00
  0.00000000E+00  0.00000000E+00  0.00000000E+00
  0.00000000E+00  0.00000000E+00  0.00000000E+00
  0.00000000E+00  0.00000000E+00  0.00000000E+00
  0.00000000E+00  0.00000000E+00  0.00000000E+00
  0.00000000E+00  0.00000000E+00  0.00000000E+00
  0.00000000E+00  0.00000000E+00  0.00000000E+00
  0.00000000E+00  0.00000000E+00  0.00000000E+00
  0.00000000E+00  0.00000000E+00  0.00000000E+00
  0.00000000E+00  0.00000000E+00  0.00000000E+00
  0.00000000E+00  0.00000000E+00  0.00000000E+00
  0.00000000E+00  0.00000000E+00  0.00000000E+00
  0.00000000E+00  0.00000000E+00  0.00000000E+00
  0.00000000E+00  0.00000000E+00  0.00000000E+00
  0.00000000E+00  0.00000000E+00  0.00000000E+00
  0.00000000E+00  0.00000000E+00  0.00000000E+00
  0.00000000E+00  0.00000000E+00  0.00000000E+00
  0.00000000E+00  0.00000000E+00  0.00000000E+00
  0.00000000E+00  0.00000000E+00  0.00000000E+00
  0.00000000E+00  0.00000000E+00  0.00000000E+00
  0.00000000E+00  0.00000000E+00  0.00000000E+00
  0.00000000E+00  0.00000000E+00  0.00000000E+00
  0.00000000E+00  0.00000000E+00  0.00000000E+00
  0.00000000E+00  0.00000000E+00  0.00000000E+00
  0.00000000E+00  0.00000000E+00  0.00000000E+00
  0.00000000E+00  0.00000000E+00  0.00000000E+00
  0.00000000E+00  0.00000000E+00  0.00000000E+00
  0.00000000E+00  0.00000000E+00  0.00000000E+00
  0.00000000E+00  0.00000000E+00  0.00000000E+00
  0.00000000E+00  0.00000000E+00  0.00000000E+00
  0.00000000E+00  0.00000000E+00  0.00000000E+00
  0.00000000E+00  0.00000000E+00  0.00000000E+00
  0.00000000E+00  0.00000000E+00  0.00000000E+00
  0.00000000E+00  0.00000000E+00  0.00000000E+00
  0.00000000E+00  0.00000000E+00  0.00000000E+00
  0.00000000E+00  0.00000000E+00  0.00000000E+00
  0.00000000E+00  0.00000000E+00  0.00000000E+00
  0.00000000E+00  0.00000000E+00  0.00000000E+00
  0.00000000E+00  0.00000000E+00  0.00000000E+00
  0.00000000E+00  0.00000000E+00  0.00000000E+00
  0.00000000E+00  0.00000000E+00  0.00000000E+00
  0.00000000E+00  0.00000000E+00  0.00000000E+00
  0.00000000E+00  0.00000000E+00  0.00000000E+00
  0.00000000E+00  0.00000000E+00  0.00000000E+00
  0.00000000E+00  0.00000000E+00  0.00000000E+00
  0.00000000E+00  0.00000000E+00  0.00000000E+00
  0.00000000E+00  0.00000000E+00  0.00000000E+00
  0.00000000E+00  0.00000000E+00  0.00000000E+00
  0.00000000E+00  0.00000000E+00  0.00000000E+00
  0.00000000E+00  0.00000000E+00  0.00000000E+00
  0.00000000E+00  0.00000000E+00  0.00000000E+00
