FeNiCoCrMn_SQSfcc160_33_Co28            
   3.50000000000000     
     2.0194194513915789    1.5151283070773580   -1.5220679679117257
     2.0217604907493172   -0.5055733748999357    2.5393912847244304
     0.0019738501793273   -4.0471420278966193   -2.0336190814175144
   Fe   Ni   Co   Cr   Mn
    33    33    28    33    33
Direct
  0.9589224908698812  0.0505551666740089  0.3506445873999598
  0.8990517414020718  0.1039877406891651  0.2032287510835428
  0.8935136647750080  0.0939960509591024  0.6989142201843995
  0.6105815336562050  0.1316108995446498  0.4622375538699724
  0.1940578799741018  0.0597774075460273  0.4366691619739592
  0.2713440231776030  0.2245576328978310  0.0740791362453429
  0.6086142689573152  0.1395759801854304  0.9661174760499859
  0.3702487881740926  0.1279675646441467  0.8781458459754934
  0.3183146194453885  0.1745818772681590  0.7249819406319998
  0.7023711846441349  0.2971901242869851  0.5997644118368369
  0.0829886133524769  0.1612250376681413  0.6364196589154700
  0.4640808401008832  0.2866192810058270  0.5126812627088940
  0.7370256273524484  0.5131178105250324  0.0857863651096604
  0.6471626095710039  0.3523717091207385  0.9485541701450922
  0.7940645919768151  0.4623564708731971  0.7402635782414290
  0.7393945288978536  0.5118658969541630  0.5851486096906167
  0.9284252613535225  0.5763254905204053  0.5274880316400501
  0.0735677063657111  0.4237027348112871  0.4732331440042180
  0.4467209848349623  0.5504297686559058  0.3489016416779344
  0.7748837657278262  0.7243721159170533  0.0751166725940560
  0.9612922729126963  0.7896474880686997  0.0122707307435773
  0.3521241954165427  0.6476003254177168  0.5495469166518053
  0.5389413269087998  0.7095694183726586  0.4859557966972515
  0.2986609451301667  0.6990862780688091  0.3957406281997641
  0.4392579064456973  0.8159837223453961  0.1875485186840365
  0.6196660887358374  0.8733292949746121  0.1227758047300730
  0.8088748391298923  0.9370033011981462  0.0612970922672019
  0.0126646989354073  0.7400155870146040  0.1628089841865188
  0.1111668430326126  0.6436088662964942  0.9610847788949489
  0.0549448963223860  0.6905419277427913  0.8081823763332420
  0.2039737174619125  0.8002005230370930  0.6010622795798041
  0.3879309517065767  0.8620974270398314  0.5347171123048085
  0.0506580311385393  0.9500063679667089  0.6495523518044919
  0.7142008980015221  0.0379610106981062  0.2623161949962135
 -0.0011899334033784  0.0023218169227867  0.0006820943769377
  0.4261161497064861  0.0747790226368291  0.5246517610488274
  0.0012711195144495 -0.0004604085364789  0.4989465683347287
  0.5602156689129842  0.1867090128356156  0.3137783792564972
  0.3269440953118387  0.1769072357006210  0.2263326713266808
  0.0845874415100834  0.1643317777433855  0.1392558376654300
  0.1357059634505785  0.1114064783766785  0.7879012982258670
  0.5114874171175581  0.2395597840369356  0.6621475063095545
  0.6546387369970751  0.3494330004720524  0.4509000615763845
  0.7864225484520894  0.4657071939832888  0.2370764788384375
  0.8377546306866780  0.4116935976377452  0.8865578908288683
  0.0360837259285371  0.2140322210536962  0.9884704153175772
  0.5006813370638599  0.4986754935347988  0.4984860548507265
  0.6889509339175403  0.5635282775772928  0.4371002279719817
  0.0255551146386064  0.4758752400104216  0.3221757678319873
  0.5896605440448689  0.6626634431236251  0.1391637711716608
  0.8754540956261044  0.6275961420465358  0.8753651212577611
  0.2618754749945996  0.4888293679658411  0.9131624117642713
  0.6399091206768470  0.6126881468372291  0.7889513239059746
  0.5871853011729664  0.6635780799844821  0.6367961819913851
  0.7783307979585022  0.7237395302219229  0.5755050764688189
  0.9622303557865238  0.7869220617347353  0.5116286227180611
  0.9129337680197762  0.8371034467899009  0.3615988075205510
  0.1986370641145910  0.7993860783407341  0.1007079881587987
  0.4903048201842275  0.7606006757132594  0.8382437893779926
  0.6799393218822316  0.8230727720958964  0.7766227781745868
  0.2501388907539812  0.7498659220228124  0.7504596834172506
  0.4400079084190693  0.8144663160651389  0.6879697640092373
  0.7649782039536930  0.9871962287443995  0.4111035909991017
  0.5272763328411222  0.9749622639695786  0.3250358742527904
  0.1009334523735237  0.9010819998991174  0.8014075792582080
  0.2903139221740288  0.9628007044425096  0.7377546499967026
  0.6645492127154722  0.0834582923863069  0.1121490646070242
  0.4231610554968392  0.0705834182084516  0.0246231553110350
  0.9478419285833544  0.0472242103765874  0.8491378079606315
  0.7123944525170682  0.0362063067110747  0.7650243260930762
  0.6620548675799571  0.0884508257564331  0.6127789059775567
  0.8473925498001300  0.1504183956020873  0.5497079919323606
  0.2360760941867815  0.0106240311243316  0.5861587077854530
  0.3720008696784589  0.1233908523112289  0.3740877494498562
  0.1385671776953364  0.1122524868618627  0.2861875007490605
  0.8860059267588556  0.3630523873998531  0.0349882416579660
  0.8929075418023590  0.3624050900260762  0.5398220354009373
  0.3107847791279316  0.4373876597871942  0.0637380976339411
  0.5003393724807812  0.5007738025053389  0.0009498595956125
  0.2238189438611587  0.2746823040639557  0.9261044200868429
  0.9771415414760634  0.5251334348543486  0.6740981685938859
  0.8756235714227333  0.6256848911831485  0.3756078564794526
  0.6391277940666300  0.6120275430650144  0.2890439203709171
  0.8253641187970520  0.6731431101123052  0.2243125415398808
  0.2159251123069826  0.5373079269667005  0.2622378949730415
  0.6869907597640901  0.5608597515932637  0.9373809124620119
  0.0258567520564699  0.4769049466459859  0.8232898963410166
  0.7254737932845666  0.7739682841836099  0.4247709428104611
  0.7264804248289389  0.7767750898937644  0.9280077358312196
  0.8674128229366759  0.8824725125450150  0.7143896155018451
  0.5761078327327638  0.9207694437575875  0.4755990496724251
  0.1008579459266029  0.9019728115139364  0.2985891068874332
  0.5720148886551155  0.9240011114526822  0.9755622482652042
  0.7630944992235756  0.9863131230761341  0.9133400255362063
  0.2352637379999367  0.0147471100729848  0.0922370653164316
  0.9956070144668993  0.2647814953459236  0.3379939395295464
  0.7435199190377191  0.2508089007920917  0.2492961261675529
  0.9291048485238521  0.3116035781531326  0.1854827314508009
  0.7047707320077491  0.3040733066345714  0.0978384515863724
  0.4537550513243807  0.2874223485139110  0.0124474890432769
  0.8009129755978712  0.1991256179196172  0.9028354697579390
  0.1829420855749862  0.0683754360449609  0.9370950650619776
  0.5505014569313349  0.1841051276095310  0.8123827317148526
  0.9362493475237827  0.3125179091729056  0.6863067332960872
  0.0406873311153744  0.2118792258360377  0.4918702008215696
  0.4142539073397770  0.3343520511610724  0.3677815191902778
  0.9787194920027077  0.5255416126242810  0.1728975108582009
  0.3685824415693525  0.3875501441980045  0.2078112163090267
  0.9194198290677829  0.5767206282011225  0.0223345124825561
  0.1257202845964483  0.3805303550174118  0.6252050211520505
  0.3129559407276001  0.4291879945770853  0.5580452499182571
  0.2559659204249247  0.4931320657600383  0.4120344339761768
  0.4478478853129327  0.5380461594847902  0.8436177372183224
  0.8220057696722503  0.6676538685568707  0.7210329994464773
  0.2027755803112598  0.5378740155559047  0.7623343284756067
  0.4044632113458930  0.6046151549729510  0.7011388704492652
  0.1647706199641057  0.5873440603607027  0.6082553145958028
  0.6737495598915018  0.8229627293890998  0.2739326569861978
  0.3871835614937542  0.8656051490240145  0.0434223400460841
  0.5394269532567547  0.7108116284129087  0.9864114218436888
  0.9152015870996444  0.8440188726987690  0.8676034916057750
  0.8125338872237703  0.9382737347581301  0.5615815268954920
  0.0180489411046099  0.7361664262749866  0.6597190587994489
  0.3427600141361723  0.9136635640215078  0.3883460426648467
  0.2926872887053139  0.9631602894212706  0.2383371396213473
  0.1539356131366039  0.8533888391100679  0.9534137459424699
  0.3393893590793054  0.9099968942390992  0.8870590855749683
  0.4758526975528526  0.0237619367129307  0.1745256068895291
  0.8464475781668475  0.1490435735285829  0.0499207187455828
  0.4739245068490358  0.0318541428997058  0.6748395687279756
  0.8041224376578102  0.2026467418244959  0.3990681066756145
  0.5143704481778067  0.2318026946396922  0.1594922772623420
  0.9854200363337136  0.2612802083644292  0.8373565523267315
  0.7363952122419258  0.2425503727549213  0.7527835715416870
  0.2731714572985446  0.2208149526781539  0.5779588884729374
  0.8443240394995943  0.4179616993656090  0.3870479032963018
  0.2248043922597776  0.2693055521653189  0.4246992828399719
  0.5985717118562721  0.3986179560404344  0.3026083627547563
  0.1799610616159364  0.3284396072859863  0.2723295058806049
  0.5481442887994517  0.4543765241989279  0.1490915909669019
  0.1173226103951708  0.3740578674223225  0.1227879804425271
  0.4077928449469767  0.3410584423230273  0.8634804051766951
  0.6031684830550439  0.4018103584166637  0.7994956222412209
  0.1793413604911379  0.3259459198273563  0.7775950171305321
  0.3616805716530976  0.3783924301832907  0.7127936264454305
  0.5462680238384445  0.4533503861496714  0.6533457908662903
  0.3996351175545341  0.6079602820922270  0.2023824717874618
  0.1612965603892836  0.5903905565248881  0.1121237962185611
  0.3526180073849264  0.6482398772882568  0.0524300104901847
  0.0773107898240625  0.4292547508293686  0.9781666289055682
  0.1130630855573758  0.6345454320891180  0.4609480365552159
  0.4886645206745188  0.7638480688417890  0.3366086766768517
  0.8574786428774926  0.8861414115121226  0.2141578834164062
  0.0619641167751965  0.6896741560678085  0.3110701405037024
  0.2454077083441406  0.7481441427573170  0.2494106885831422
  0.3021304061061748  0.7015692641421857  0.8977771320388571
  0.6332210896876753  0.8766763789226329  0.6289072063832905
  0.1487956736460419  0.8490794741892057  0.4464873519754597
  0.0526811094084284  0.9523054711484350  0.1513334688149677
  0.5285439710820754  0.9729278059607781  0.8280113074053105
 
  0.00000000E+00  0.00000000E+00  0.00000000E+00
  0.00000000E+00  0.00000000E+00  0.00000000E+00
  0.00000000E+00  0.00000000E+00  0.00000000E+00
  0.00000000E+00  0.00000000E+00  0.00000000E+00
  0.00000000E+00  0.00000000E+00  0.00000000E+00
  0.00000000E+00  0.00000000E+00  0.00000000E+00
  0.00000000E+00  0.00000000E+00  0.00000000E+00
  0.00000000E+00  0.00000000E+00  0.00000000E+00
  0.00000000E+00  0.00000000E+00  0.00000000E+00
  0.00000000E+00  0.00000000E+00  0.00000000E+00
  0.00000000E+00  0.00000000E+00  0.00000000E+00
  0.00000000E+00  0.00000000E+00  0.00000000E+00
  0.00000000E+00  0.00000000E+00  0.00000000E+00
  0.00000000E+00  0.00000000E+00  0.00000000E+00
  0.00000000E+00  0.00000000E+00  0.00000000E+00
  0.00000000E+00  0.00000000E+00  0.00000000E+00
  0.00000000E+00  0.00000000E+00  0.00000000E+00
  0.00000000E+00  0.00000000E+00  0.00000000E+00
  0.00000000E+00  0.00000000E+00  0.00000000E+00
  0.00000000E+00  0.00000000E+00  0.00000000E+00
  0.00000000E+00  0.00000000E+00  0.00000000E+00
  0.00000000E+00  0.00000000E+00  0.00000000E+00
  0.00000000E+00  0.00000000E+00  0.00000000E+00
  0.00000000E+00  0.00000000E+00  0.00000000E+00
  0.00000000E+00  0.00000000E+00  0.00000000E+00
  0.00000000E+00  0.00000000E+00  0.00000000E+00
  0.00000000E+00  0.00000000E+00  0.00000000E+00
  0.00000000E+00  0.00000000E+00  0.00000000E+00
  0.00000000E+00  0.00000000E+00  0.00000000E+00
  0.00000000E+00  0.00000000E+00  0.00000000E+00
  0.00000000E+00  0.00000000E+00  0.00000000E+00
  0.00000000E+00  0.00000000E+00  0.00000000E+00
  0.00000000E+00  0.00000000E+00  0.00000000E+00
  0.00000000E+00  0.00000000E+00  0.00000000E+00
  0.00000000E+00  0.00000000E+00  0.00000000E+00
  0.00000000E+00  0.00000000E+00  0.00000000E+00
  0.00000000E+00  0.00000000E+00  0.00000000E+00
  0.00000000E+00  0.00000000E+00  0.00000000E+00
  0.00000000E+00  0.00000000E+00  0.00000000E+00
  0.00000000E+00  0.00000000E+00  0.00000000E+00
  0.00000000E+00  0.00000000E+00  0.00000000E+00
  0.00000000E+00  0.00000000E+00  0.00000000E+00
  0.00000000E+00  0.00000000E+00  0.00000000E+00
  0.00000000E+00  0.00000000E+00  0.00000000E+00
  0.00000000E+00  0.00000000E+00  0.00000000E+00
  0.00000000E+00  0.00000000E+00  0.00000000E+00
  0.00000000E+00  0.00000000E+00  0.00000000E+00
  0.00000000E+00  0.00000000E+00  0.00000000E+00
  0.00000000E+00  0.00000000E+00  0.00000000E+00
  0.00000000E+00  0.00000000E+00  0.00000000E+00
  0.00000000E+00  0.00000000E+00  0.00000000E+00
  0.00000000E+00  0.00000000E+00  0.00000000E+00
  0.00000000E+00  0.00000000E+00  0.00000000E+00
  0.00000000E+00  0.00000000E+00  0.00000000E+00
  0.00000000E+00  0.00000000E+00  0.00000000E+00
  0.00000000E+00  0.00000000E+00  0.00000000E+00
  0.00000000E+00  0.00000000E+00  0.00000000E+00
  0.00000000E+00  0.00000000E+00  0.00000000E+00
  0.00000000E+00  0.00000000E+00  0.00000000E+00
  0.00000000E+00  0.00000000E+00  0.00000000E+00
  0.00000000E+00  0.00000000E+00  0.00000000E+00
  0.00000000E+00  0.00000000E+00  0.00000000E+00
  0.00000000E+00  0.00000000E+00  0.00000000E+00
  0.00000000E+00  0.00000000E+00  0.00000000E+00
  0.00000000E+00  0.00000000E+00  0.00000000E+00
  0.00000000E+00  0.00000000E+00  0.00000000E+00
  0.00000000E+00  0.00000000E+00  0.00000000E+00
  0.00000000E+00  0.00000000E+00  0.00000000E+00
  0.00000000E+00  0.00000000E+00  0.00000000E+00
  0.00000000E+00  0.00000000E+00  0.00000000E+00
  0.00000000E+00  0.00000000E+00  0.00000000E+00
  0.00000000E+00  0.00000000E+00  0.00000000E+00
  0.00000000E+00  0.00000000E+00  0.00000000E+00
  0.00000000E+00  0.00000000E+00  0.00000000E+00
  0.00000000E+00  0.00000000E+00  0.00000000E+00
  0.00000000E+00  0.00000000E+00  0.00000000E+00
  0.00000000E+00  0.00000000E+00  0.00000000E+00
  0.00000000E+00  0.00000000E+00  0.00000000E+00
  0.00000000E+00  0.00000000E+00  0.00000000E+00
  0.00000000E+00  0.00000000E+00  0.00000000E+00
  0.00000000E+00  0.00000000E+00  0.00000000E+00
  0.00000000E+00  0.00000000E+00  0.00000000E+00
  0.00000000E+00  0.00000000E+00  0.00000000E+00
  0.00000000E+00  0.00000000E+00  0.00000000E+00
  0.00000000E+00  0.00000000E+00  0.00000000E+00
  0.00000000E+00  0.00000000E+00  0.00000000E+00
  0.00000000E+00  0.00000000E+00  0.00000000E+00
  0.00000000E+00  0.00000000E+00  0.00000000E+00
  0.00000000E+00  0.00000000E+00  0.00000000E+00
  0.00000000E+00  0.00000000E+00  0.00000000E+00
  0.00000000E+00  0.00000000E+00  0.00000000E+00
  0.00000000E+00  0.00000000E+00  0.00000000E+00
  0.00000000E+00  0.00000000E+00  0.00000000E+00
  0.00000000E+00  0.00000000E+00  0.00000000E+00
  0.00000000E+00  0.00000000E+00  0.00000000E+00
  0.00000000E+00  0.00000000E+00  0.00000000E+00
  0.00000000E+00  0.00000000E+00  0.00000000E+00
  0.00000000E+00  0.00000000E+00  0.00000000E+00
  0.00000000E+00  0.00000000E+00  0.00000000E+00
  0.00000000E+00  0.00000000E+00  0.00000000E+00
  0.00000000E+00  0.00000000E+00  0.00000000E+00
  0.00000000E+00  0.00000000E+00  0.00000000E+00
  0.00000000E+00  0.00000000E+00  0.00000000E+00
  0.00000000E+00  0.00000000E+00  0.00000000E+00
  0.00000000E+00  0.00000000E+00  0.00000000E+00
  0.00000000E+00  0.00000000E+00  0.00000000E+00
  0.00000000E+00  0.00000000E+00  0.00000000E+00
  0.00000000E+00  0.00000000E+00  0.00000000E+00
  0.00000000E+00  0.00000000E+00  0.00000000E+00
  0.00000000E+00  0.00000000E+00  0.00000000E+00
  0.00000000E+00  0.00000000E+00  0.00000000E+00
  0.00000000E+00  0.00000000E+00  0.00000000E+00
  0.00000000E+00  0.00000000E+00  0.00000000E+00
  0.00000000E+00  0.00000000E+00  0.00000000E+00
  0.00000000E+00  0.00000000E+00  0.00000000E+00
  0.00000000E+00  0.00000000E+00  0.00000000E+00
  0.00000000E+00  0.00000000E+00  0.00000000E+00
  0.00000000E+00  0.00000000E+00  0.00000000E+00
  0.00000000E+00  0.00000000E+00  0.00000000E+00
  0.00000000E+00  0.00000000E+00  0.00000000E+00
  0.00000000E+00  0.00000000E+00  0.00000000E+00
  0.00000000E+00  0.00000000E+00  0.00000000E+00
  0.00000000E+00  0.00000000E+00  0.00000000E+00
  0.00000000E+00  0.00000000E+00  0.00000000E+00
  0.00000000E+00  0.00000000E+00  0.00000000E+00
  0.00000000E+00  0.00000000E+00  0.00000000E+00
  0.00000000E+00  0.00000000E+00  0.00000000E+00
  0.00000000E+00  0.00000000E+00  0.00000000E+00
  0.00000000E+00  0.00000000E+00  0.00000000E+00
  0.00000000E+00  0.00000000E+00  0.00000000E+00
  0.00000000E+00  0.00000000E+00  0.00000000E+00
  0.00000000E+00  0.00000000E+00  0.00000000E+00
  0.00000000E+00  0.00000000E+00  0.00000000E+00
  0.00000000E+00  0.00000000E+00  0.00000000E+00
  0.00000000E+00  0.00000000E+00  0.00000000E+00
  0.00000000E+00  0.00000000E+00  0.00000000E+00
  0.00000000E+00  0.00000000E+00  0.00000000E+00
  0.00000000E+00  0.00000000E+00  0.00000000E+00
  0.00000000E+00  0.00000000E+00  0.00000000E+00
  0.00000000E+00  0.00000000E+00  0.00000000E+00
  0.00000000E+00  0.00000000E+00  0.00000000E+00
  0.00000000E+00  0.00000000E+00  0.00000000E+00
  0.00000000E+00  0.00000000E+00  0.00000000E+00
  0.00000000E+00  0.00000000E+00  0.00000000E+00
  0.00000000E+00  0.00000000E+00  0.00000000E+00
  0.00000000E+00  0.00000000E+00  0.00000000E+00
  0.00000000E+00  0.00000000E+00  0.00000000E+00
  0.00000000E+00  0.00000000E+00  0.00000000E+00
  0.00000000E+00  0.00000000E+00  0.00000000E+00
  0.00000000E+00  0.00000000E+00  0.00000000E+00
  0.00000000E+00  0.00000000E+00  0.00000000E+00
  0.00000000E+00  0.00000000E+00  0.00000000E+00
  0.00000000E+00  0.00000000E+00  0.00000000E+00
  0.00000000E+00  0.00000000E+00  0.00000000E+00
  0.00000000E+00  0.00000000E+00  0.00000000E+00
  0.00000000E+00  0.00000000E+00  0.00000000E+00
  0.00000000E+00  0.00000000E+00  0.00000000E+00
  0.00000000E+00  0.00000000E+00  0.00000000E+00
  0.00000000E+00  0.00000000E+00  0.00000000E+00
  0.00000000E+00  0.00000000E+00  0.00000000E+00
