FeNiCoCrPd_SQSbcc160_31_Co36            
   3.00000000000000     
    -1.0953749122723908    2.6058617293728759   -0.9722763742605595
    -3.1812580251337814   -0.8649519875239724    1.8525708119303550
     4.4296200241240884    1.7839788672955443    4.9417292129149581
   Fe   Ni   Co   Cr   Pd
    31    31    36    31    31
Direct
  0.7954529465456419  0.9913692631029530  0.0610731169780183
  0.3650322486413110  0.8592860950741861  0.6265273173937700
  0.8162904665604580  0.7389291645784162  0.3783473007159626
  0.8509780383923254  0.6497051121782987  0.7956401561012060
  0.0321099918627476  0.7449115145807389  0.3232377121965019
  0.1224543167293659  0.7153560094932327  0.4363525061088850
  0.2921924065546816  0.6654724728153011  0.6704865398488438
  0.8580265321964152  0.5549385943668833  0.2445004164395196
  0.5657463995925683  0.4736665134031141  0.6283208960228797
  0.7356588762807543  0.4167525987264223  0.8825877164328533
  0.3606023703386930  0.4627887889461327  0.6935533381687236
  0.0628259803636897  0.4664533963665380  0.6224855923047238
  0.2284706984239839  0.4318920372666278  0.8825105482031358
  0.7063202218199539  0.3339901108648151  0.3327222380949446
  0.7858682033877900  0.2985660578614461  0.4562153757580603
  0.4316962024458585  0.3487392834028173  0.2704944425134196
  0.2201586399280051  0.3311069362871321  0.3291521068540087
  0.3013281749681374  0.3014304636701666  0.4549349900933674
  0.0427579936047988  0.2673033409922926  0.8139877823978662
  0.1229551821096856  0.2058899519259604  0.9197788574206727
  0.7244144182305562  0.1971074749710089  0.0426806537680296
  0.5636770713680498  0.1528899194601798  0.2308798978581445
  0.7700671136097951  0.0750955487631353  0.6011889164947730
  0.9343887571362000  0.0140011891664269  0.8729172801958985
  0.2021809597129178  0.1919275518430056  0.0412623298049197
  0.3536456266911580  0.1441117435254998  0.2951368961182885
  0.5777946738489796  0.0733566419784768  0.6797518491635877
  0.6464796678615636  0.0303695167575693  0.8162610131427177
  0.2104835476369730  0.1021390581227668  0.4750379797202540
  0.3719387224470282  0.0441663358506733  0.7434094965878421
  0.2140662016167109  0.0074324121379819  0.9321467904914685
  0.8661146019338389  0.9682349268326522  0.1920609280776025
  0.6571778250040234  0.9601258908361467  0.2541477240213006
  0.7861611629038099  0.8909594499630915  0.4958552201747141
  0.9395321194592346  0.8491605600399382  0.7696037765561490
  0.3588586864681292  0.9744314954734692  0.1898819754137308
  0.1474486616045215  0.9579802779949573  0.2503284138606470
  0.0103356354880435  0.9125301036156532  0.4336476446097860
  0.5898585308289342  0.7955964997255272  0.0230524215057399
  0.6639646144299384  0.7852132518885040  0.1498754709733279
  0.9019419312700194  0.6907195647105453  0.4846783954899526
  0.1566904386997915  0.7804386490016092  0.1495846649182174
  0.2354887079997701  0.7672635159276412  0.2688961436738140
  0.5694486200634005  0.6549505990482264  0.7310121474790245
  0.2030074700756013  0.6789597572416323  0.5466195244407751
  0.4303522248481172  0.6123874478094451  0.9227824503804465
  0.2054782507307745  0.5981448508712943  0.9810918899741027
  0.7985668141830942  0.3930949084475530  0.0118308661273045
  0.5055876415359427  0.3129310469101540  0.3947332489858840
  0.8390419703436504  0.2167043208116818  0.8629183598031084
  0.3720883628180752  0.2733310278141255  0.5761092496615339
  0.5541301985965418  0.2258004550054191  0.8074099329546041
  0.6407081006436334  0.2068763936086832  0.9223207733812874
  0.0739222559074809  0.2871062959177573  0.5151098530483017
  0.4934631562023096  0.1825026463950263  0.1096264533416776
  0.7023539913916147  0.0969265350965906  0.4773643333148053
  0.4278430503710529  0.1140047607358873  0.4163531700941158
  0.4954040400928572  0.0874918394610315  0.5381745055892355
  0.7289025490136143  0.0134851195881861  0.9368069922691890
  0.0692967449137593  0.1573755605953513  0.2322656838667804
  0.0901429616480383  0.0626441510657451  0.6763445434482852
  0.0036155468215642  0.0036150100718091  0.9982882195301198
  0.9352355091281016  0.9428435156612379  0.3139879974015660
  0.5723215510453766  0.9740570721064477  0.1296347647845948
  0.7199285891817946  0.9332462641068142  0.3739020674745159
  0.4350087080995959  0.9490870853044996  0.3137225288413176
  0.7321781549432838  0.8351588075239248  0.8333174063040146
  0.2213273202890853  0.9335959459546539  0.3736571954416190
  0.9467688379384249  0.7726655354360193  0.2123012612622755
  0.7355559114368755  0.7517155974637064  0.2651021727129332
  0.3753357142005481  0.7995507270552891  0.0863979145270770
  0.5243350626973742  0.7569678992819729  0.3289610238569853
  0.6139228619706550  0.7082881224300577  0.4330584342835170
  0.7708786749582328  0.6636866001806497  0.6699843024985083
  0.9287543459938798  0.6128526531349219  0.9221358482574082
  0.3187499152839037  0.7284120485811024  0.3786445210665843
  0.4098877177604285  0.6950861425952919  0.4906881985556095
  0.4888723301502213  0.6696270878141755  0.6075175252540663
  0.1381215951741073  0.6228876167200940  0.8595876892612739
  0.7206029809301439  0.6020361334369684  0.9827210532225702
  0.5750772750065596  0.5721397214972079  0.1830985536471918
  0.6391873717961434  0.5591427746889056  0.3101171251547116
  0.7074893274856749  0.5016292100412681  0.4360274959223835
  0.4940668261800898  0.4911137388267564  0.4975130070173768
  0.6337278155933762  0.4563584029385906  0.7515183826919170
  0.1326205280840643  0.5424912239530797  0.3101429384945521
  0.9885074432048208  0.4896829356503162  0.4984780719957491
  0.1436773573237485  0.4367310245118419  0.7592613599321935
  0.8592387570415261  0.2726785698248535  0.5757257714454217
  0.5744164449617958  0.2862834214548501  0.5159033944445186
  0.7468332692917937  0.2776850676566948  0.7550676232045413
  0.0673763063002144  0.3803897548793076  0.0755743163848876
  0.4558820924252288  0.2674523134389674  0.6993662350177354
  0.3370443485306569  0.2207473458083653  0.8625972609014918
  0.8490978609518742  0.1383454624886632  0.2924813594153007
  0.6374248216565611  0.1304749768619849  0.3523102869261096
  0.4305885824475064  0.0272618572893503  0.8709096138071031
  0.1530344374856257  0.0436978233789290  0.8103074938369159
  0.2864660122749090  0.0034931242890603  0.0670296278474894
  0.5049744319162709  0.9098904180715964  0.4421204885820873
  0.5759501351834888  0.8872555312827760  0.5698476594643735
  0.7960532862595434  0.8126152233523815  0.9576375758414324
  0.0808318056840303  0.9784298911715086  0.1272805051145433
  0.2943004536996845  0.8994226971676392  0.4904472340449877
  0.4484370187929999  0.8473057063823768  0.7720149689034183
  0.5175077487867114  0.8279529855764014  0.8951311834238000
  0.0801678083355264  0.8729442989560994  0.5650556776882431
  0.2156735115789194  0.8426972377656304  0.8328659318677375
  0.0094285659162887  0.8151144121565491  0.8921228332711244
  0.6924226953623785  0.6919289214447247  0.5472127558965219
  0.9931587811696365  0.5769619848819479  0.0413492363202405
  0.9284761563057448  0.4587760478803573  0.8210579143327049
  0.0707459444447291  0.5791406835710671  0.1858248937487251
  0.2086476915518268  0.5081683709903297  0.4371759804949720
  0.4320256224782696  0.4210438655015635  0.8136741593791973
  0.0049358422968060  0.4066198751663423  0.9454158290422138
  0.8817856683368416  0.3688115240721477  0.1375581507043863
  0.9419224512048506  0.3489233970462414  0.2700441296614869
  0.5815794663282462  0.3868989424296560  0.0784596271324079
  0.9413130756551173  0.2338013266632907  0.6954046638058783
  0.3369565889057438  0.3586168767761273  0.1419258091152229
  0.6441450756703933  0.2567574149847237  0.6327216843097286
  0.1333577172055164  0.3686768658862134  0.2076273643440541
  0.2519156860533512  0.2464706539036654  0.7586824056429260
  0.9250887265815035  0.2058488070557760  0.9833728471112877
  0.0182030066791954  0.1726419644793181  0.1080964684884574
  0.9138489744940596  0.1114053457248724  0.4164675379924720
  0.2737969651716917  0.1730292948594983  0.1671001647703163
  0.1469635695529017  0.1286799026572931  0.3519827518222255
  0.8658766155869432  0.8819381821053103  0.6341730704487595
  0.6463041337456276  0.8607477652504790  0.7034486863984172
  0.1615098872475401  0.8633458666382773  0.7056333734765148
  0.3013998074526137  0.8037314856867722  0.9564869258769186
  0.8683774570973483  0.7864625593346287  0.0858347553218402
  0.9893005395345937  0.6720658619398652  0.6057042137979112
  0.4489755144674581  0.7719663314502551  0.2070970962027937
  0.0861352888149860  0.7967831000255522  0.0217649344531367
  0.6470558852140617  0.6260133578713725  0.8596393211737937
  0.3534074811499480  0.6396660377330274  0.7979634865261490
  0.0628782872470894  0.6480424293759619  0.7339725369000244
  0.7908528500627892  0.5760970575872955  0.1159326630987758
  0.9165677414183260  0.5289393104684934  0.3712675412497244
  0.5002936993473130  0.6006044649896510  0.0507955679346682
  0.7719360276017780  0.4783802808305774  0.5612272409234168
  0.8528581545745839  0.4451583470985293  0.6900370754448184
  0.2711237560704083  0.5796255122645741  0.1130869755453208
  0.3524245277119840  0.5576683624912753  0.2459117380697890
  0.4222629162575094  0.5205698711908504  0.3749029185031807
  0.2805509307999165  0.4758445225023498  0.5621664557671133
  0.5181064127422910  0.4091925475780053  0.9451758791216105
  0.6443727709901133  0.3708265893191149  0.2071155983436863
  0.2851952695203902  0.3941061230912089  0.0105395092725424
  0.0030135880669298  0.3132345647429136  0.3935203686935749
  0.1578740520182814  0.2734420140917581  0.6406377226598875
  0.7832564347832821  0.1694468645632245  0.1672273879702172
  0.9908121823402296  0.0786245653393568  0.5406993645949074
  0.4251250134602698  0.1999340368607704  0.9829232623995697
  0.8626942925825317  0.0641556835102709  0.7480850643841309
  0.2963597099859906  0.0658287319889782  0.6066478564344315
  0.5159521240821222  0.9990314889687457  0.0035941232422907
 
  0.00000000E+00  0.00000000E+00  0.00000000E+00
  0.00000000E+00  0.00000000E+00  0.00000000E+00
  0.00000000E+00  0.00000000E+00  0.00000000E+00
  0.00000000E+00  0.00000000E+00  0.00000000E+00
  0.00000000E+00  0.00000000E+00  0.00000000E+00
  0.00000000E+00  0.00000000E+00  0.00000000E+00
  0.00000000E+00  0.00000000E+00  0.00000000E+00
  0.00000000E+00  0.00000000E+00  0.00000000E+00
  0.00000000E+00  0.00000000E+00  0.00000000E+00
  0.00000000E+00  0.00000000E+00  0.00000000E+00
  0.00000000E+00  0.00000000E+00  0.00000000E+00
  0.00000000E+00  0.00000000E+00  0.00000000E+00
  0.00000000E+00  0.00000000E+00  0.00000000E+00
  0.00000000E+00  0.00000000E+00  0.00000000E+00
  0.00000000E+00  0.00000000E+00  0.00000000E+00
  0.00000000E+00  0.00000000E+00  0.00000000E+00
  0.00000000E+00  0.00000000E+00  0.00000000E+00
  0.00000000E+00  0.00000000E+00  0.00000000E+00
  0.00000000E+00  0.00000000E+00  0.00000000E+00
  0.00000000E+00  0.00000000E+00  0.00000000E+00
  0.00000000E+00  0.00000000E+00  0.00000000E+00
  0.00000000E+00  0.00000000E+00  0.00000000E+00
  0.00000000E+00  0.00000000E+00  0.00000000E+00
  0.00000000E+00  0.00000000E+00  0.00000000E+00
  0.00000000E+00  0.00000000E+00  0.00000000E+00
  0.00000000E+00  0.00000000E+00  0.00000000E+00
  0.00000000E+00  0.00000000E+00  0.00000000E+00
  0.00000000E+00  0.00000000E+00  0.00000000E+00
  0.00000000E+00  0.00000000E+00  0.00000000E+00
  0.00000000E+00  0.00000000E+00  0.00000000E+00
  0.00000000E+00  0.00000000E+00  0.00000000E+00
  0.00000000E+00  0.00000000E+00  0.00000000E+00
  0.00000000E+00  0.00000000E+00  0.00000000E+00
  0.00000000E+00  0.00000000E+00  0.00000000E+00
  0.00000000E+00  0.00000000E+00  0.00000000E+00
  0.00000000E+00  0.00000000E+00  0.00000000E+00
  0.00000000E+00  0.00000000E+00  0.00000000E+00
  0.00000000E+00  0.00000000E+00  0.00000000E+00
  0.00000000E+00  0.00000000E+00  0.00000000E+00
  0.00000000E+00  0.00000000E+00  0.00000000E+00
  0.00000000E+00  0.00000000E+00  0.00000000E+00
  0.00000000E+00  0.00000000E+00  0.00000000E+00
  0.00000000E+00  0.00000000E+00  0.00000000E+00
  0.00000000E+00  0.00000000E+00  0.00000000E+00
  0.00000000E+00  0.00000000E+00  0.00000000E+00
  0.00000000E+00  0.00000000E+00  0.00000000E+00
  0.00000000E+00  0.00000000E+00  0.00000000E+00
  0.00000000E+00  0.00000000E+00  0.00000000E+00
  0.00000000E+00  0.00000000E+00  0.00000000E+00
  0.00000000E+00  0.00000000E+00  0.00000000E+00
  0.00000000E+00  0.00000000E+00  0.00000000E+00
  0.00000000E+00  0.00000000E+00  0.00000000E+00
  0.00000000E+00  0.00000000E+00  0.00000000E+00
  0.00000000E+00  0.00000000E+00  0.00000000E+00
  0.00000000E+00  0.00000000E+00  0.00000000E+00
  0.00000000E+00  0.00000000E+00  0.00000000E+00
  0.00000000E+00  0.00000000E+00  0.00000000E+00
  0.00000000E+00  0.00000000E+00  0.00000000E+00
  0.00000000E+00  0.00000000E+00  0.00000000E+00
  0.00000000E+00  0.00000000E+00  0.00000000E+00
  0.00000000E+00  0.00000000E+00  0.00000000E+00
  0.00000000E+00  0.00000000E+00  0.00000000E+00
  0.00000000E+00  0.00000000E+00  0.00000000E+00
  0.00000000E+00  0.00000000E+00  0.00000000E+00
  0.00000000E+00  0.00000000E+00  0.00000000E+00
  0.00000000E+00  0.00000000E+00  0.00000000E+00
  0.00000000E+00  0.00000000E+00  0.00000000E+00
  0.00000000E+00  0.00000000E+00  0.00000000E+00
  0.00000000E+00  0.00000000E+00  0.00000000E+00
  0.00000000E+00  0.00000000E+00  0.00000000E+00
  0.00000000E+00  0.00000000E+00  0.00000000E+00
  0.00000000E+00  0.00000000E+00  0.00000000E+00
  0.00000000E+00  0.00000000E+00  0.00000000E+00
  0.00000000E+00  0.00000000E+00  0.00000000E+00
  0.00000000E+00  0.00000000E+00  0.00000000E+00
  0.00000000E+00  0.00000000E+00  0.00000000E+00
  0.00000000E+00  0.00000000E+00  0.00000000E+00
  0.00000000E+00  0.00000000E+00  0.00000000E+00
  0.00000000E+00  0.00000000E+00  0.00000000E+00
  0.00000000E+00  0.00000000E+00  0.00000000E+00
  0.00000000E+00  0.00000000E+00  0.00000000E+00
  0.00000000E+00  0.00000000E+00  0.00000000E+00
  0.00000000E+00  0.00000000E+00  0.00000000E+00
  0.00000000E+00  0.00000000E+00  0.00000000E+00
  0.00000000E+00  0.00000000E+00  0.00000000E+00
  0.00000000E+00  0.00000000E+00  0.00000000E+00
  0.00000000E+00  0.00000000E+00  0.00000000E+00
  0.00000000E+00  0.00000000E+00  0.00000000E+00
  0.00000000E+00  0.00000000E+00  0.00000000E+00
  0.00000000E+00  0.00000000E+00  0.00000000E+00
  0.00000000E+00  0.00000000E+00  0.00000000E+00
  0.00000000E+00  0.00000000E+00  0.00000000E+00
  0.00000000E+00  0.00000000E+00  0.00000000E+00
  0.00000000E+00  0.00000000E+00  0.00000000E+00
  0.00000000E+00  0.00000000E+00  0.00000000E+00
  0.00000000E+00  0.00000000E+00  0.00000000E+00
  0.00000000E+00  0.00000000E+00  0.00000000E+00
  0.00000000E+00  0.00000000E+00  0.00000000E+00
  0.00000000E+00  0.00000000E+00  0.00000000E+00
  0.00000000E+00  0.00000000E+00  0.00000000E+00
  0.00000000E+00  0.00000000E+00  0.00000000E+00
  0.00000000E+00  0.00000000E+00  0.00000000E+00
  0.00000000E+00  0.00000000E+00  0.00000000E+00
  0.00000000E+00  0.00000000E+00  0.00000000E+00
  0.00000000E+00  0.00000000E+00  0.00000000E+00
  0.00000000E+00  0.00000000E+00  0.00000000E+00
  0.00000000E+00  0.00000000E+00  0.00000000E+00
  0.00000000E+00  0.00000000E+00  0.00000000E+00
  0.00000000E+00  0.00000000E+00  0.00000000E+00
  0.00000000E+00  0.00000000E+00  0.00000000E+00
  0.00000000E+00  0.00000000E+00  0.00000000E+00
  0.00000000E+00  0.00000000E+00  0.00000000E+00
  0.00000000E+00  0.00000000E+00  0.00000000E+00
  0.00000000E+00  0.00000000E+00  0.00000000E+00
  0.00000000E+00  0.00000000E+00  0.00000000E+00
  0.00000000E+00  0.00000000E+00  0.00000000E+00
  0.00000000E+00  0.00000000E+00  0.00000000E+00
  0.00000000E+00  0.00000000E+00  0.00000000E+00
  0.00000000E+00  0.00000000E+00  0.00000000E+00
  0.00000000E+00  0.00000000E+00  0.00000000E+00
  0.00000000E+00  0.00000000E+00  0.00000000E+00
  0.00000000E+00  0.00000000E+00  0.00000000E+00
  0.00000000E+00  0.00000000E+00  0.00000000E+00
  0.00000000E+00  0.00000000E+00  0.00000000E+00
  0.00000000E+00  0.00000000E+00  0.00000000E+00
  0.00000000E+00  0.00000000E+00  0.00000000E+00
  0.00000000E+00  0.00000000E+00  0.00000000E+00
  0.00000000E+00  0.00000000E+00  0.00000000E+00
  0.00000000E+00  0.00000000E+00  0.00000000E+00
  0.00000000E+00  0.00000000E+00  0.00000000E+00
  0.00000000E+00  0.00000000E+00  0.00000000E+00
  0.00000000E+00  0.00000000E+00  0.00000000E+00
  0.00000000E+00  0.00000000E+00  0.00000000E+00
  0.00000000E+00  0.00000000E+00  0.00000000E+00
  0.00000000E+00  0.00000000E+00  0.00000000E+00
  0.00000000E+00  0.00000000E+00  0.00000000E+00
  0.00000000E+00  0.00000000E+00  0.00000000E+00
  0.00000000E+00  0.00000000E+00  0.00000000E+00
  0.00000000E+00  0.00000000E+00  0.00000000E+00
  0.00000000E+00  0.00000000E+00  0.00000000E+00
  0.00000000E+00  0.00000000E+00  0.00000000E+00
  0.00000000E+00  0.00000000E+00  0.00000000E+00
  0.00000000E+00  0.00000000E+00  0.00000000E+00
  0.00000000E+00  0.00000000E+00  0.00000000E+00
  0.00000000E+00  0.00000000E+00  0.00000000E+00
  0.00000000E+00  0.00000000E+00  0.00000000E+00
  0.00000000E+00  0.00000000E+00  0.00000000E+00
  0.00000000E+00  0.00000000E+00  0.00000000E+00
  0.00000000E+00  0.00000000E+00  0.00000000E+00
  0.00000000E+00  0.00000000E+00  0.00000000E+00
  0.00000000E+00  0.00000000E+00  0.00000000E+00
  0.00000000E+00  0.00000000E+00  0.00000000E+00
  0.00000000E+00  0.00000000E+00  0.00000000E+00
  0.00000000E+00  0.00000000E+00  0.00000000E+00
  0.00000000E+00  0.00000000E+00  0.00000000E+00
  0.00000000E+00  0.00000000E+00  0.00000000E+00
  0.00000000E+00  0.00000000E+00  0.00000000E+00
  0.00000000E+00  0.00000000E+00  0.00000000E+00
  0.00000000E+00  0.00000000E+00  0.00000000E+00
  0.00000000E+00  0.00000000E+00  0.00000000E+00
