FeNiCoCrMn_SQSbcc160_33_Co28            
   2.80000000000000     
    -0.5657838931012051    2.7573849245097497   -0.4878989811219956
    -2.0924960900583418   -0.4172677499382559    2.4414323738098922
     5.6752988717250243    2.1597120410648514    6.5463790807465818
   Fe   Ni   Co   Cr   Mn
    33    33    28    33    33
Direct
  0.8884863035750103  0.7291451527830207  0.0618341111923822
  0.7195569109524907  0.7708194064626051  0.1401736144587191
  0.8091394931920444  0.7831827648308354  0.2329811106842474
  0.9246522098733397  0.7872833247685743  0.3262860601144083
  0.3115218304328650  0.8283201178322906  0.8663045714448584
  0.0321653658440027  0.7945006722337253  0.9152427756483779
  0.8015948396945816  0.6017152318220919  0.4008090382593497
  0.6111922144802177  0.6820208669068691  0.4707729171919402
  0.1053736944165295  0.6252550051619420  0.6735957468845289
  0.2215020576790357  0.6184434610373504  0.9401952992293228
  0.8769516259279273  0.3349226165062815  0.4083779098608674
  0.2663508727613448  0.3828690505198211  0.1019662172420852
  0.3759308363375276  0.3772229724546526  0.1935841075200689
  0.1741669670248681  0.4384237965425045  0.2642085015097113
  0.4999149662705539  0.4924872047723330  0.5445948360673342
  0.7239091919656322  0.3899388529173758  0.9711789125391544
  0.2826962128128944  0.3596130582252011  0.9330689135088254
  0.6530905271656429  0.2046773680088333  0.0466538960599465
  0.9427822855315544  0.2365519367491342  0.2424742895272188
  0.4518248378338082  0.1202497025862808  0.1996478183875480
  0.8734993090062340  0.1691977989910150  0.5790220375972034
  0.1523798963905957  0.1820829399023177  0.1764985861320945
  0.2709534443866464  0.2923756899919099  0.5261198544037832
  0.3768001462573375  0.2976491058587515  0.6197387195186879
  0.8447239723263618  0.0513962396885586  0.3190416752566291
  0.9684690520315122  0.9523375904877103  0.9844407186946565
  0.1002684947883842  0.9257122716492107  0.0804823440592633
  0.4298578042475648  0.9288037812066627  0.3696674839858550
  0.5435449902308910  0.0134845311858525  0.7167837916279391
  0.8252522092738621  0.9637703223839030  0.8956151180901762
  0.0582527418160349  0.0845105684447613  0.5060576727914832
  0.1646519368860738  0.0985649253543057  0.6009070112316751
  0.5371655598407871  0.0222887837394910  0.8865634641068586
  0.5942451122398268  0.7948999991930773  0.0505227612845248
  0.7273659351288034  0.8651576577193782  0.3958224723561583
  0.0103530849073181  0.7198382939212301  0.1591837010956245
  0.1103998071516078  0.7151512446696405  0.2561077012860280
  0.8748038639970409  0.7957386944372230  0.8249159934594694
  0.2401438028573866  0.8381233379872092  0.6056756081250573
  0.5991705116337280  0.7659690575738421  0.8767208222470654
  0.0406711047149812  0.8820600396229311  0.6772525310296090
  0.4525477566173385  0.8129014683515422  0.9579135449214726
  0.4830105894523284  0.5852294573340997  0.1203005855555658
  0.6957960365806980  0.5889903174486837  0.3072398871181542
  0.3979682161140907  0.6506327978826569  0.2811758456810200
  0.5052126503666374  0.6642930297997400  0.3770908977853298
  0.4764992156820526  0.5908709784197643  0.7128412851619547
  0.8078193421987128  0.5937355261471957  0.8985282600923974
  0.5144272326475484  0.5575197165829241  0.9508173590410440
  0.4256257546295758  0.3470457725946509  0.0231034533377999
  0.7743269523294468  0.3245936009389208  0.3127135963256549
  0.6924579320727532  0.4168226861477316  0.4771062257693199
 -0.0193141662490571  0.3534612371396928  0.5026872389609370
  0.2311150746366640  0.3943391662216060  0.6921756566289388
  0.5668052901447534  0.3963460286324162  0.8810038093711051
  0.0425852117324661  0.1869695311420969  0.0857801666633108
  0.0601617601236719  0.2583036095696949  0.3377503038430828
  0.3298888449230911  0.1217773511380014  0.1000166774649631
  0.3552524621561995  0.1989264837817416  0.3626730315900551
  0.1722753315558813  0.2717848078354887  0.4310634428459362
  0.3330172847778282  0.1992181883571141  0.8621377394007623
  0.8187940676562746 -0.0056383506094551  0.0660554903499566
  0.3330504855669360  0.9206096668401900  0.2748461476199074
  0.7677519566382894 -0.0173308699430503  0.6521295710706704
  0.6804947338985218  0.0106230575520595  0.9779841711799020
  0.9492793421255018 -0.0066496343130188  0.7526823241659328
  0.3447185440380273  0.8151459724331566  0.1039676470530099
  0.8371869160497845  0.8830334024094374  0.4902556646012098
  0.2184896328648737  0.7242429486556234  0.3497736657315715
  0.3257608894732534  0.7409227355727506  0.4443358687766948
  0.5426583153068718  0.7848220613841613  0.6335724202973604
  0.1325707763966337  0.8230382189196341  0.5137929893404887
  0.1658912082949521  0.8392163755311562  0.7753189611325830
  0.5892584280464693  0.5765376318410722  0.2141305519441744
  0.7195981479795660  0.6984731654610804  0.5650892084627401
 -0.0058867286991697  0.5277379446207126  0.3334543873215040
  0.2244479032025398  0.5890103035960841  0.7666566942998291
  0.5553960896714460  0.3212965306820399  0.1198491469944299
  0.6690132286470190  0.3124824276073751  0.2176799614811180
  0.4782802649141951  0.3860892836580259  0.2867682013775656
  0.2898999651887748  0.4639840218585564  0.3568549605820229
  0.4006727376519857  0.4724468601645712  0.4516181457755682
  0.8534564036251036  0.4238313256184848  0.8323975670473482
  0.3992783255170012  0.3966656466713436  0.7877649261494473
  0.8090148644238461  0.2170403257433019  0.1455561113258451
  0.7653976072394814  0.1467935017849220  0.4848026381182988
  0.2564200376798684  0.1799893750601705  0.2690359079118238
  0.7672518993738524  0.2187373537081064  0.9048834914688357
  0.9124850729056466  0.2041677097258094  0.9942251418561449
  0.7242445896186721  0.0339433764620072  0.2261214383534541
  0.5435350867555634  0.9437973313889503  0.4643869287220022
  0.1408096076449843  0.9960828523248471  0.3435227388635063
  0.3567534541786498  0.0216538413845989  0.5325207878881244
  0.6845328902437339 -0.0150046759448946  0.8057952721074518
  0.5016787257279876  0.8363621786296330  0.2005304620193668
  0.6323320625014289  0.8491702985033036  0.3021063681853310
  0.9504617786381517  0.9041389717398940  0.5816768167855544
  0.4194540719482450  0.7601565412588120  0.5385007464393736
  0.3302151688378239  0.8084299062916521  0.6976090590790970
  0.4543615477598867  0.7815197697052668  0.7863124954971207
  0.7747947840145629  0.5192330289542059  0.1396500175300291
  0.3514193050965612  0.6148759561372502  0.0300104902081170
  0.9566031948961305  0.5979153793044361  0.9908789185070748
  0.0094737882304015  0.6435975427299049  0.5856508440981707
  0.3557112130519955  0.5658579606314357  0.8619740940261807
  0.0856914857564371  0.6273043272557575  0.8473231679212156
  0.1353692348848640  0.3999323364907059  0.0113783487162682
  0.5826518721811582  0.4006501814752766  0.3820113009432591
  0.7944445676620508  0.4374723058021411  0.5696611593428836
  0.9023749331998917  0.4252763830207847  0.6632634907661952
  0.1097267457044098  0.3767221504596865  0.5961967675387281
  0.0005073150882007  0.3823501084213591  0.7531340439079007
  0.1984046949669458  0.1425992178138743  0.0066037757084264
  0.5474573288217593  0.1320066103127721  0.2935818746674106
  0.7817054295549525  0.1853419777687508  0.7347206684485798
 -0.0873399678535867  0.1649731132547026  0.8272680062201838
  0.4779237668494132  0.2757160569893297  0.7132738002434786
  0.6202276865327232  0.2461064384920919  0.8131501149238506
  0.0007757573387922  0.1816965324796257  0.6721246205889384
  0.1858406175319992  0.1921627693777936  0.7697991579388587
  0.4849628078658939  0.1937295726405998  0.9513763601532096
  0.4143752895049643  0.9923097109320256  0.0258011117315477
  0.6483918242451275 -0.0357647349963502  0.5569894214773650
  0.0294926299291080  0.9800541018931112  0.2502031406632556
  0.2577320487067558  0.0057773875093589  0.4388494295474424
  0.4024319561534012  0.0438124407791006  0.7913483688101242
  0.1040823851730480 -0.0081555324640268  0.8429144324555188
  0.1866153866215164  0.8080104594784152  0.0081470610813147
  0.7041440093989521  0.8070295645263861  0.7328997618904667
  0.0330601155718168  0.8152938208704316  0.4206894858657800
  0.7466541333252220  0.7519772820437135  0.9675367712194153
  0.6492916019385251  0.5329602279052815  0.0457653755685581
  0.8805238713039655  0.5225703603789142  0.2371773776017083
  0.9114067011493714  0.6180189113324543  0.4967690790447612
  0.1254070305117231  0.6045239143714293  0.0860353324290829
  0.2816009283290660  0.6315278367932600  0.1860344565262807
  0.8013483856640363  0.6885588977226235  0.6620743373921060
  0.9369275348514458  0.6414523825514780  0.7513774025876910
  0.1102330240908493  0.5352956646673013  0.4273820169023060
  0.2039252559902477  0.5599459011056876  0.5201160393387669
  0.3333466560729373  0.5803967576535931  0.6149275431301755
  0.6404705219688219  0.5928362558009764  0.8065793953395710
  0.8948597096267362  0.4002643745843641  0.0665004183113638
  0.0415288598531440  0.4221501004479682  0.1636058663403351
  0.5990827690312951  0.5011594174134273  0.6362748612246658
  0.7018570971372472  0.4437516350217839  0.7390070262321965
  0.0009193392321897  0.4119999407733307  0.9222524627108649
  0.1388589502323520  0.3755804032444767  0.8406466471941066
  0.6559564024415211  0.1317597026233819  0.3878735052151228
  0.4707630441820599  0.2076464713110908  0.4590785483464758
  0.5682520185010574  0.2355275090921425  0.5509381758735868
  0.6766612034943719  0.2374475210477393  0.6488705642095602
  0.0557557277551092  0.1665832805363607  0.9132033475114628
  0.9257890780598530 -0.0139606190420130  0.1583252815627952
  0.5845367434797344  0.0108620177585342  0.1260515428660907
  0.9460700222947679  0.0701010412866368  0.4133322716672160
  0.2279677007081099  0.9209703493263617  0.1795247994283817
  0.4694979260037676  0.0422228147054598  0.6237922186164734
  0.2674588399248031  0.0759226395095232  0.6955502735796376
  0.2517318202551695 -0.0120267368830316  0.9327490254616583
 
  0.00000000E+00  0.00000000E+00  0.00000000E+00
  0.00000000E+00  0.00000000E+00  0.00000000E+00
  0.00000000E+00  0.00000000E+00  0.00000000E+00
  0.00000000E+00  0.00000000E+00  0.00000000E+00
  0.00000000E+00  0.00000000E+00  0.00000000E+00
  0.00000000E+00  0.00000000E+00  0.00000000E+00
  0.00000000E+00  0.00000000E+00  0.00000000E+00
  0.00000000E+00  0.00000000E+00  0.00000000E+00
  0.00000000E+00  0.00000000E+00  0.00000000E+00
  0.00000000E+00  0.00000000E+00  0.00000000E+00
  0.00000000E+00  0.00000000E+00  0.00000000E+00
  0.00000000E+00  0.00000000E+00  0.00000000E+00
  0.00000000E+00  0.00000000E+00  0.00000000E+00
  0.00000000E+00  0.00000000E+00  0.00000000E+00
  0.00000000E+00  0.00000000E+00  0.00000000E+00
  0.00000000E+00  0.00000000E+00  0.00000000E+00
  0.00000000E+00  0.00000000E+00  0.00000000E+00
  0.00000000E+00  0.00000000E+00  0.00000000E+00
  0.00000000E+00  0.00000000E+00  0.00000000E+00
  0.00000000E+00  0.00000000E+00  0.00000000E+00
  0.00000000E+00  0.00000000E+00  0.00000000E+00
  0.00000000E+00  0.00000000E+00  0.00000000E+00
  0.00000000E+00  0.00000000E+00  0.00000000E+00
  0.00000000E+00  0.00000000E+00  0.00000000E+00
  0.00000000E+00  0.00000000E+00  0.00000000E+00
  0.00000000E+00  0.00000000E+00  0.00000000E+00
  0.00000000E+00  0.00000000E+00  0.00000000E+00
  0.00000000E+00  0.00000000E+00  0.00000000E+00
  0.00000000E+00  0.00000000E+00  0.00000000E+00
  0.00000000E+00  0.00000000E+00  0.00000000E+00
  0.00000000E+00  0.00000000E+00  0.00000000E+00
  0.00000000E+00  0.00000000E+00  0.00000000E+00
  0.00000000E+00  0.00000000E+00  0.00000000E+00
  0.00000000E+00  0.00000000E+00  0.00000000E+00
  0.00000000E+00  0.00000000E+00  0.00000000E+00
  0.00000000E+00  0.00000000E+00  0.00000000E+00
  0.00000000E+00  0.00000000E+00  0.00000000E+00
  0.00000000E+00  0.00000000E+00  0.00000000E+00
  0.00000000E+00  0.00000000E+00  0.00000000E+00
  0.00000000E+00  0.00000000E+00  0.00000000E+00
  0.00000000E+00  0.00000000E+00  0.00000000E+00
  0.00000000E+00  0.00000000E+00  0.00000000E+00
  0.00000000E+00  0.00000000E+00  0.00000000E+00
  0.00000000E+00  0.00000000E+00  0.00000000E+00
  0.00000000E+00  0.00000000E+00  0.00000000E+00
  0.00000000E+00  0.00000000E+00  0.00000000E+00
  0.00000000E+00  0.00000000E+00  0.00000000E+00
  0.00000000E+00  0.00000000E+00  0.00000000E+00
  0.00000000E+00  0.00000000E+00  0.00000000E+00
  0.00000000E+00  0.00000000E+00  0.00000000E+00
  0.00000000E+00  0.00000000E+00  0.00000000E+00
  0.00000000E+00  0.00000000E+00  0.00000000E+00
  0.00000000E+00  0.00000000E+00  0.00000000E+00
  0.00000000E+00  0.00000000E+00  0.00000000E+00
  0.00000000E+00  0.00000000E+00  0.00000000E+00
  0.00000000E+00  0.00000000E+00  0.00000000E+00
  0.00000000E+00  0.00000000E+00  0.00000000E+00
  0.00000000E+00  0.00000000E+00  0.00000000E+00
  0.00000000E+00  0.00000000E+00  0.00000000E+00
  0.00000000E+00  0.00000000E+00  0.00000000E+00
  0.00000000E+00  0.00000000E+00  0.00000000E+00
  0.00000000E+00  0.00000000E+00  0.00000000E+00
  0.00000000E+00  0.00000000E+00  0.00000000E+00
  0.00000000E+00  0.00000000E+00  0.00000000E+00
  0.00000000E+00  0.00000000E+00  0.00000000E+00
  0.00000000E+00  0.00000000E+00  0.00000000E+00
  0.00000000E+00  0.00000000E+00  0.00000000E+00
  0.00000000E+00  0.00000000E+00  0.00000000E+00
  0.00000000E+00  0.00000000E+00  0.00000000E+00
  0.00000000E+00  0.00000000E+00  0.00000000E+00
  0.00000000E+00  0.00000000E+00  0.00000000E+00
  0.00000000E+00  0.00000000E+00  0.00000000E+00
  0.00000000E+00  0.00000000E+00  0.00000000E+00
  0.00000000E+00  0.00000000E+00  0.00000000E+00
  0.00000000E+00  0.00000000E+00  0.00000000E+00
  0.00000000E+00  0.00000000E+00  0.00000000E+00
  0.00000000E+00  0.00000000E+00  0.00000000E+00
  0.00000000E+00  0.00000000E+00  0.00000000E+00
  0.00000000E+00  0.00000000E+00  0.00000000E+00
  0.00000000E+00  0.00000000E+00  0.00000000E+00
  0.00000000E+00  0.00000000E+00  0.00000000E+00
  0.00000000E+00  0.00000000E+00  0.00000000E+00
  0.00000000E+00  0.00000000E+00  0.00000000E+00
  0.00000000E+00  0.00000000E+00  0.00000000E+00
  0.00000000E+00  0.00000000E+00  0.00000000E+00
  0.00000000E+00  0.00000000E+00  0.00000000E+00
  0.00000000E+00  0.00000000E+00  0.00000000E+00
  0.00000000E+00  0.00000000E+00  0.00000000E+00
  0.00000000E+00  0.00000000E+00  0.00000000E+00
  0.00000000E+00  0.00000000E+00  0.00000000E+00
  0.00000000E+00  0.00000000E+00  0.00000000E+00
  0.00000000E+00  0.00000000E+00  0.00000000E+00
  0.00000000E+00  0.00000000E+00  0.00000000E+00
  0.00000000E+00  0.00000000E+00  0.00000000E+00
  0.00000000E+00  0.00000000E+00  0.00000000E+00
  0.00000000E+00  0.00000000E+00  0.00000000E+00
  0.00000000E+00  0.00000000E+00  0.00000000E+00
  0.00000000E+00  0.00000000E+00  0.00000000E+00
  0.00000000E+00  0.00000000E+00  0.00000000E+00
  0.00000000E+00  0.00000000E+00  0.00000000E+00
  0.00000000E+00  0.00000000E+00  0.00000000E+00
  0.00000000E+00  0.00000000E+00  0.00000000E+00
  0.00000000E+00  0.00000000E+00  0.00000000E+00
  0.00000000E+00  0.00000000E+00  0.00000000E+00
  0.00000000E+00  0.00000000E+00  0.00000000E+00
  0.00000000E+00  0.00000000E+00  0.00000000E+00
  0.00000000E+00  0.00000000E+00  0.00000000E+00
  0.00000000E+00  0.00000000E+00  0.00000000E+00
  0.00000000E+00  0.00000000E+00  0.00000000E+00
  0.00000000E+00  0.00000000E+00  0.00000000E+00
  0.00000000E+00  0.00000000E+00  0.00000000E+00
  0.00000000E+00  0.00000000E+00  0.00000000E+00
  0.00000000E+00  0.00000000E+00  0.00000000E+00
  0.00000000E+00  0.00000000E+00  0.00000000E+00
  0.00000000E+00  0.00000000E+00  0.00000000E+00
  0.00000000E+00  0.00000000E+00  0.00000000E+00
  0.00000000E+00  0.00000000E+00  0.00000000E+00
  0.00000000E+00  0.00000000E+00  0.00000000E+00
  0.00000000E+00  0.00000000E+00  0.00000000E+00
  0.00000000E+00  0.00000000E+00  0.00000000E+00
  0.00000000E+00  0.00000000E+00  0.00000000E+00
  0.00000000E+00  0.00000000E+00  0.00000000E+00
  0.00000000E+00  0.00000000E+00  0.00000000E+00
  0.00000000E+00  0.00000000E+00  0.00000000E+00
  0.00000000E+00  0.00000000E+00  0.00000000E+00
  0.00000000E+00  0.00000000E+00  0.00000000E+00
  0.00000000E+00  0.00000000E+00  0.00000000E+00
  0.00000000E+00  0.00000000E+00  0.00000000E+00
  0.00000000E+00  0.00000000E+00  0.00000000E+00
  0.00000000E+00  0.00000000E+00  0.00000000E+00
  0.00000000E+00  0.00000000E+00  0.00000000E+00
  0.00000000E+00  0.00000000E+00  0.00000000E+00
  0.00000000E+00  0.00000000E+00  0.00000000E+00
  0.00000000E+00  0.00000000E+00  0.00000000E+00
  0.00000000E+00  0.00000000E+00  0.00000000E+00
  0.00000000E+00  0.00000000E+00  0.00000000E+00
  0.00000000E+00  0.00000000E+00  0.00000000E+00
  0.00000000E+00  0.00000000E+00  0.00000000E+00
  0.00000000E+00  0.00000000E+00  0.00000000E+00
  0.00000000E+00  0.00000000E+00  0.00000000E+00
  0.00000000E+00  0.00000000E+00  0.00000000E+00
  0.00000000E+00  0.00000000E+00  0.00000000E+00
  0.00000000E+00  0.00000000E+00  0.00000000E+00
  0.00000000E+00  0.00000000E+00  0.00000000E+00
  0.00000000E+00  0.00000000E+00  0.00000000E+00
  0.00000000E+00  0.00000000E+00  0.00000000E+00
  0.00000000E+00  0.00000000E+00  0.00000000E+00
  0.00000000E+00  0.00000000E+00  0.00000000E+00
  0.00000000E+00  0.00000000E+00  0.00000000E+00
  0.00000000E+00  0.00000000E+00  0.00000000E+00
  0.00000000E+00  0.00000000E+00  0.00000000E+00
  0.00000000E+00  0.00000000E+00  0.00000000E+00
  0.00000000E+00  0.00000000E+00  0.00000000E+00
  0.00000000E+00  0.00000000E+00  0.00000000E+00
  0.00000000E+00  0.00000000E+00  0.00000000E+00
  0.00000000E+00  0.00000000E+00  0.00000000E+00
  0.00000000E+00  0.00000000E+00  0.00000000E+00
  0.00000000E+00  0.00000000E+00  0.00000000E+00
  0.00000000E+00  0.00000000E+00  0.00000000E+00
  0.00000000E+00  0.00000000E+00  0.00000000E+00
