FeNiCoCrMn_SQSbcc160_34_29              
   2.80000000000000     
     4.1617541813016574    0.0066601909507539   -0.0011222174128373
     0.0062028806578198    3.9778551425038269    2.0092175053870878
    -1.0450780431611950   -1.9903818919761871    4.0182591336715525
   Fe   Ni   Co   Cr   Mn
    34    34    34    29    29
Direct
  0.3627429396589474  0.8511489653298370  0.9529255450454901
  0.1232823450763304  0.3516070370968998  0.9513343050480926
  0.3055106266184091  0.7393049417987094  0.7471232613077453
  0.4451501925608317  0.8917242993886688  0.8045916200605985
  0.0622376204878091  0.2518923455665175  0.7490531266410096
  0.1943170975441020  0.4023406320143486  0.7984268746065933
  0.6136374544618359  0.8507238430387362  0.9543743154584586
  0.2412164898559497  0.8417509017931580  0.4530730570720463
  0.0223339503862376  0.1491595840221508  0.5488043520065173
  0.1475589678485671  0.3078722728417524  0.5980101364874966
  0.3120438080036583  0.2568967867949053  0.7529059398277310
  0.8651666460941584  0.8602110617385405  0.9598845528249054
  0.0519541885224932  0.5926338977317673  0.2021030074621642
  0.3199805941319892  0.8985520812482585  0.2978952567142819
  0.5075445259837398  0.6536532765681854  0.5486036464619030
  0.4210907009743468  0.1054969744722136  0.6972111146112469
  0.5620748274900988  0.2461139824051959  0.7511309924302749
  0.7009582946413393  0.3967021832323045  0.7982532970489929
  0.8558326046881469  0.3454218951800555  0.9488165050469084
  0.5174678354422554  0.1448206956156872  0.5521575087500480
  0.7923356227719618  0.4456332091585186  0.6552712554769131
  0.3920387289165394  0.6492105573870430  0.0479637660809953
  0.5257493106928349  0.8030298137589787  0.1020249569917811
  0.4138740837051328  0.4514187707842615  0.1414685735761130
  0.5496563821987512  0.5993323620160957  0.1981842866787976
  0.6833486141369380  0.7503139446123172  0.2517095426255351
  0.8230312370255274  0.8975413454915909  0.2910806233170019
  0.2975400063547866  0.0991463305067744  0.1949555633972798
  0.7065577981666509  0.5474585895199284  0.3493857909882084
  0.8426498025432857  0.6943876792024843  0.3965968980608406
  0.9223926135156446  0.1076484624234749  0.6890358320496155
  0.6578440525105158  0.4502434074606180  0.1447181296598530
  0.6830299413483065  0.2470811497149130  0.2502500175776929
  0.8852372557558819  0.6478828906190576  0.0595293395978829
  0.1085468824923318  0.8448927147754788  0.9549943696677923
  0.3265061265139537  0.5519245287184689  0.8406068475321229
  0.4731926621290710  0.6971727480007553  0.8947556948330789
  0.0737416948388761  0.0547297708214268  0.8404266824723552
  0.3571585515468542  0.3530886374459518  0.9476550900068519
  0.1222817612181934  0.5027095018221942  0.5016781297299614
  0.2684524446369489  0.6485006508247244  0.5585551355423942
  0.4391643339967974  0.6008928776242792  0.7065606017717310
  0.7407251267986894  0.7098262551414211  0.9041187780917755
  0.0181283162201804  0.7977492457666275  0.1091502928742748
  0.4749750462512904  0.8413312245031892  0.4508064961579276
  0.3787806499665903  0.5012670951623351  0.4994496127054796
  0.2552151810025393  0.1533573531975626  0.5505116353365785
  0.8104283182973636  0.7469760133425846  0.7403281323724802
  0.9624210793124437  0.6988621202206439  0.9040267324254766
  0.5721985608133547  0.0476877392611199  0.8463823524014826
  0.2842384722983926  0.7943301063899556  0.1037691426593064
  0.3573720345498619  0.2029640025418741  0.4045515047257447
  0.6328506951296669  0.5093723925095036  0.5055975507114916
  0.9553608232724999  0.4017098067899929  0.8094234470103789
  0.2459870788785117  0.5100716035662833  0.0000040003089775
  0.9818113735218222  0.8418552564298362  0.4421396838074861
  0.5839773756848774  0.1977428059966158  0.3925006355341291
  0.6138750346571012 -0.0133090968399291  0.4998130880443415
  0.7511343548757770  0.1378780370617768  0.5433132875322866
  0.8949008463089928  0.2895481217377324  0.5902372069798529
  0.4993823743194463  0.5047092187791505 -0.0127271524260577
  0.7794677953715743  0.8006823630895480  0.1086313728993363
  0.9098995598679479  0.9591969941287356  0.1427713425337947
  0.2435108592246641  0.0018655473347336 -0.0088299537207218
  0.9419973653682266  0.7396008563131402  0.2605704526015259
  0.9578727384123864  0.5474597360126868  0.3487945501196767
  0.6364479638452566  0.1500378639520857  0.0564325666896706
  0.9348334043931625  0.2488095574193611  0.2465176972328279
  0.0627352276654563  0.7540865045049259  0.7617427859612220
  0.2313492091420786  0.7040522925106052  0.9037365124413658
  0.0030091587243045  0.6518333826871615  0.5392188858460101
  0.1552943227274418  0.6038768004743171  0.6915143136535328
  0.1105157198005213  0.6926297370068725  0.4042668126590561
  0.4016632451456864  0.7998239717933844  0.6100445533268314
  0.3441111978245912  0.0494828706329708  0.8470486691315992
  0.0776097597077553  0.4003772469272788  0.2938918047544943
  0.2120468673179880  0.5437084721827827  0.3518761847229700
  0.3464384270676896  0.6896900654104541  0.3994894970716798
  0.2362473503109281  0.3539702939943746  0.4471904032501898
  0.1271303090708936 -0.0072699741344253  0.5005175540579792
  0.5432161529957112  0.4460876151660281  0.6496295617281085
  0.8336977309488800  0.5495902798856941  0.8478494988805547
  0.4102430191607433  0.9529740753796666  0.1480754888963976
  0.1905521700044908  0.2488842192738946  0.2486996145447551
  0.4670447430187816  0.5480450814175037  0.3479293133669487
  0.6075750074746749  0.6979758701356344  0.4059884458781738
  0.7547273817331502  0.8512244948326519  0.4495535761254612
  0.4951779895319810  0.3597657190781183  0.4506484414650297
  0.7736945466681157  0.6546928048363339  0.5522036747476720
  0.9136194734627373  0.8005808039257126  0.6045023425281743
  0.6751446990262716  0.0968583056242443  0.7034915711466717
  0.8142129698866793  0.2483081165860632  0.7524750404876139
  0.8498569039017294  0.0599188969620967  0.8488366776640039
  0.6591855882728564  0.9546774696819128  0.1488854142638057
  0.5725498476341316  0.3962393968745477  0.2935371698364568
  0.5244186116454693  0.3003875942805911  0.1015257596838045
  0.7903671837585703  0.5968130412367466  0.2022692862384233
  0.5475045021375772  0.1019111701767932  0.2075338837091280
  0.8513831399534498  0.1998945336866538  0.4058909769691330
  0.8910397502288733  0.0009711671716377  0.5013959041051034
  0.7442744229252306  0.0053208277954134 -0.0097724563068509
  0.8890659907081956  0.1503882906302190  0.0476635232759417
  0.2030743584468297  0.9026446365487111  0.8056401611665238
  0.1462050763359558  0.8003213729709068  0.6035786456294334
  0.2856352494109949  0.9482074328136179  0.6559883727023850
  0.0266386581183580  0.4511467014059999  0.6478051652482738
  0.2269928155188680  0.1938582939812761  0.9015145602038506
  0.7022013596945184  0.9039862809279050  0.8065870582956745
  0.4530194084338727  0.4065753122561924  0.7961778475449832
  0.6087137645889041  0.5549819552478301  0.8509565776158564
  0.4737399076532106  0.2053486774196690  0.9013964730787033
  0.1636969048561931  0.9465510370633657  0.1501197592332421
  0.7960438886218094  0.9532776907728243  0.6453497652283543
  0.7192955113577485  0.1944532194259725  0.8984884868295686
  0.5746937245429663  0.9019126523140442  0.3080723470709779
  0.3307346591364678  0.3973979588449190  0.3004184744660022
  0.3747486023207161 -0.0000284395694490  0.5041834072268218
  0.9286266675611137  0.5938944183111710  0.7016490728212721
  0.9808222950894101  0.2144940664810029  0.9005554431708784
  0.1339308451273494  0.1549401400858734  0.0442779449913735
  0.2791808848434317  0.3022183107672073  0.1005552051495105
  0.4252494952215131  0.2556331382010776  0.2468910838816603
  0.4543984561438049  0.0403424484787814  0.3482756598292043
  0.7321446874677903  0.3485544107375443  0.4466152097166124
  0.8767195166649318  0.4890510016889995  0.5023455794970192
  0.6383652914244928  0.6543212415103726  0.0486358549402093
  0.3823888703579372  0.1526729407169631  0.0458638566782321
  0.9877228968384189  0.3512894846979920  0.4427242743464372
  0.7473121403426236  0.5014976032916767 -0.0016732623414695
  0.9104536699894512  0.4464090680335119  0.1509954305204377
  0.9675040673004113  0.0485199225589726  0.3428343282058038
  0.0449752351334879  0.9488198751428069  0.6554890656874195
  0.0874780691260530  0.5589791198014368  0.8482739355856090
  0.0719486357783762  0.8978518689433187  0.2959229745476717
  0.5346386655946899  0.9498921004513701  0.6578801278577574
  0.2864528310053569  0.4634515695845645  0.6501429512969013
  0.5733910085807336  0.7531401843769032  0.7532721838279027
  0.1794714806610060  0.1019437433388204  0.7024457938262387
  0.6054556133753035  0.3466872390729352  0.9461772052795906
  0.1906785885055564  0.7439822983942947  0.2506981460475088
  0.1000207992320957  0.2043172754330011  0.3955714341538587
  0.6555464113975172  0.8062621768552776  0.5930271526338471
  0.4002921855550080  0.3028916616850225  0.5948550457214519
  0.6768909248811934  0.5967840349732438  0.6947455531362798
  0.9404370826211986  0.8984812317030363  0.8025742304149149
 -0.0067785731737574  0.4961004569143889  0.0019456501278201
  0.1328205836296449  0.6574615841325735  0.0490646915757401
  0.0278782306739368  0.3016288925448753  0.0993423596235903
  0.1741744864346579  0.4472291598514282  0.1522527372607760
  0.3029511556944888  0.5955985441140333  0.2014424717438314
  0.4431473899658601  0.7518389872173747  0.2586643672250659
  0.0552048750433525  0.1004567558998855  0.1981260998485701
  0.2226245493843499  0.0491408969597174  0.3570843141113216
  0.6542720302229040  0.2983617673179772  0.5966314012098957
  0.0094441891210644  0.0046179377632485 -0.0007379609957932
  0.8221885904196238  0.3957020944437571  0.3016807152065301
  0.7111494314909969  0.0477394473372378  0.3594808072894246
  0.4964698934776369  0.0046330927038691  0.0027028417360507
  0.7739577715697838  0.3000847649228435  0.1003233527281920
  0.8016375254744983  0.0998270011311709  0.2023768840759331
 
  0.00000000E+00  0.00000000E+00  0.00000000E+00
  0.00000000E+00  0.00000000E+00  0.00000000E+00
  0.00000000E+00  0.00000000E+00  0.00000000E+00
  0.00000000E+00  0.00000000E+00  0.00000000E+00
  0.00000000E+00  0.00000000E+00  0.00000000E+00
  0.00000000E+00  0.00000000E+00  0.00000000E+00
  0.00000000E+00  0.00000000E+00  0.00000000E+00
  0.00000000E+00  0.00000000E+00  0.00000000E+00
  0.00000000E+00  0.00000000E+00  0.00000000E+00
  0.00000000E+00  0.00000000E+00  0.00000000E+00
  0.00000000E+00  0.00000000E+00  0.00000000E+00
  0.00000000E+00  0.00000000E+00  0.00000000E+00
  0.00000000E+00  0.00000000E+00  0.00000000E+00
  0.00000000E+00  0.00000000E+00  0.00000000E+00
  0.00000000E+00  0.00000000E+00  0.00000000E+00
  0.00000000E+00  0.00000000E+00  0.00000000E+00
  0.00000000E+00  0.00000000E+00  0.00000000E+00
  0.00000000E+00  0.00000000E+00  0.00000000E+00
  0.00000000E+00  0.00000000E+00  0.00000000E+00
  0.00000000E+00  0.00000000E+00  0.00000000E+00
  0.00000000E+00  0.00000000E+00  0.00000000E+00
  0.00000000E+00  0.00000000E+00  0.00000000E+00
  0.00000000E+00  0.00000000E+00  0.00000000E+00
  0.00000000E+00  0.00000000E+00  0.00000000E+00
  0.00000000E+00  0.00000000E+00  0.00000000E+00
  0.00000000E+00  0.00000000E+00  0.00000000E+00
  0.00000000E+00  0.00000000E+00  0.00000000E+00
  0.00000000E+00  0.00000000E+00  0.00000000E+00
  0.00000000E+00  0.00000000E+00  0.00000000E+00
  0.00000000E+00  0.00000000E+00  0.00000000E+00
  0.00000000E+00  0.00000000E+00  0.00000000E+00
  0.00000000E+00  0.00000000E+00  0.00000000E+00
  0.00000000E+00  0.00000000E+00  0.00000000E+00
  0.00000000E+00  0.00000000E+00  0.00000000E+00
  0.00000000E+00  0.00000000E+00  0.00000000E+00
  0.00000000E+00  0.00000000E+00  0.00000000E+00
  0.00000000E+00  0.00000000E+00  0.00000000E+00
  0.00000000E+00  0.00000000E+00  0.00000000E+00
  0.00000000E+00  0.00000000E+00  0.00000000E+00
  0.00000000E+00  0.00000000E+00  0.00000000E+00
  0.00000000E+00  0.00000000E+00  0.00000000E+00
  0.00000000E+00  0.00000000E+00  0.00000000E+00
  0.00000000E+00  0.00000000E+00  0.00000000E+00
  0.00000000E+00  0.00000000E+00  0.00000000E+00
  0.00000000E+00  0.00000000E+00  0.00000000E+00
  0.00000000E+00  0.00000000E+00  0.00000000E+00
  0.00000000E+00  0.00000000E+00  0.00000000E+00
  0.00000000E+00  0.00000000E+00  0.00000000E+00
  0.00000000E+00  0.00000000E+00  0.00000000E+00
  0.00000000E+00  0.00000000E+00  0.00000000E+00
  0.00000000E+00  0.00000000E+00  0.00000000E+00
  0.00000000E+00  0.00000000E+00  0.00000000E+00
  0.00000000E+00  0.00000000E+00  0.00000000E+00
  0.00000000E+00  0.00000000E+00  0.00000000E+00
  0.00000000E+00  0.00000000E+00  0.00000000E+00
  0.00000000E+00  0.00000000E+00  0.00000000E+00
  0.00000000E+00  0.00000000E+00  0.00000000E+00
  0.00000000E+00  0.00000000E+00  0.00000000E+00
  0.00000000E+00  0.00000000E+00  0.00000000E+00
  0.00000000E+00  0.00000000E+00  0.00000000E+00
  0.00000000E+00  0.00000000E+00  0.00000000E+00
  0.00000000E+00  0.00000000E+00  0.00000000E+00
  0.00000000E+00  0.00000000E+00  0.00000000E+00
  0.00000000E+00  0.00000000E+00  0.00000000E+00
  0.00000000E+00  0.00000000E+00  0.00000000E+00
  0.00000000E+00  0.00000000E+00  0.00000000E+00
  0.00000000E+00  0.00000000E+00  0.00000000E+00
  0.00000000E+00  0.00000000E+00  0.00000000E+00
  0.00000000E+00  0.00000000E+00  0.00000000E+00
  0.00000000E+00  0.00000000E+00  0.00000000E+00
  0.00000000E+00  0.00000000E+00  0.00000000E+00
  0.00000000E+00  0.00000000E+00  0.00000000E+00
  0.00000000E+00  0.00000000E+00  0.00000000E+00
  0.00000000E+00  0.00000000E+00  0.00000000E+00
  0.00000000E+00  0.00000000E+00  0.00000000E+00
  0.00000000E+00  0.00000000E+00  0.00000000E+00
  0.00000000E+00  0.00000000E+00  0.00000000E+00
  0.00000000E+00  0.00000000E+00  0.00000000E+00
  0.00000000E+00  0.00000000E+00  0.00000000E+00
  0.00000000E+00  0.00000000E+00  0.00000000E+00
  0.00000000E+00  0.00000000E+00  0.00000000E+00
  0.00000000E+00  0.00000000E+00  0.00000000E+00
  0.00000000E+00  0.00000000E+00  0.00000000E+00
  0.00000000E+00  0.00000000E+00  0.00000000E+00
  0.00000000E+00  0.00000000E+00  0.00000000E+00
  0.00000000E+00  0.00000000E+00  0.00000000E+00
  0.00000000E+00  0.00000000E+00  0.00000000E+00
  0.00000000E+00  0.00000000E+00  0.00000000E+00
  0.00000000E+00  0.00000000E+00  0.00000000E+00
  0.00000000E+00  0.00000000E+00  0.00000000E+00
  0.00000000E+00  0.00000000E+00  0.00000000E+00
  0.00000000E+00  0.00000000E+00  0.00000000E+00
  0.00000000E+00  0.00000000E+00  0.00000000E+00
  0.00000000E+00  0.00000000E+00  0.00000000E+00
  0.00000000E+00  0.00000000E+00  0.00000000E+00
  0.00000000E+00  0.00000000E+00  0.00000000E+00
  0.00000000E+00  0.00000000E+00  0.00000000E+00
  0.00000000E+00  0.00000000E+00  0.00000000E+00
  0.00000000E+00  0.00000000E+00  0.00000000E+00
  0.00000000E+00  0.00000000E+00  0.00000000E+00
  0.00000000E+00  0.00000000E+00  0.00000000E+00
  0.00000000E+00  0.00000000E+00  0.00000000E+00
  0.00000000E+00  0.00000000E+00  0.00000000E+00
  0.00000000E+00  0.00000000E+00  0.00000000E+00
  0.00000000E+00  0.00000000E+00  0.00000000E+00
  0.00000000E+00  0.00000000E+00  0.00000000E+00
  0.00000000E+00  0.00000000E+00  0.00000000E+00
  0.00000000E+00  0.00000000E+00  0.00000000E+00
  0.00000000E+00  0.00000000E+00  0.00000000E+00
  0.00000000E+00  0.00000000E+00  0.00000000E+00
  0.00000000E+00  0.00000000E+00  0.00000000E+00
  0.00000000E+00  0.00000000E+00  0.00000000E+00
  0.00000000E+00  0.00000000E+00  0.00000000E+00
  0.00000000E+00  0.00000000E+00  0.00000000E+00
  0.00000000E+00  0.00000000E+00  0.00000000E+00
  0.00000000E+00  0.00000000E+00  0.00000000E+00
  0.00000000E+00  0.00000000E+00  0.00000000E+00
  0.00000000E+00  0.00000000E+00  0.00000000E+00
  0.00000000E+00  0.00000000E+00  0.00000000E+00
  0.00000000E+00  0.00000000E+00  0.00000000E+00
  0.00000000E+00  0.00000000E+00  0.00000000E+00
  0.00000000E+00  0.00000000E+00  0.00000000E+00
  0.00000000E+00  0.00000000E+00  0.00000000E+00
  0.00000000E+00  0.00000000E+00  0.00000000E+00
  0.00000000E+00  0.00000000E+00  0.00000000E+00
  0.00000000E+00  0.00000000E+00  0.00000000E+00
  0.00000000E+00  0.00000000E+00  0.00000000E+00
  0.00000000E+00  0.00000000E+00  0.00000000E+00
  0.00000000E+00  0.00000000E+00  0.00000000E+00
  0.00000000E+00  0.00000000E+00  0.00000000E+00
  0.00000000E+00  0.00000000E+00  0.00000000E+00
  0.00000000E+00  0.00000000E+00  0.00000000E+00
  0.00000000E+00  0.00000000E+00  0.00000000E+00
  0.00000000E+00  0.00000000E+00  0.00000000E+00
  0.00000000E+00  0.00000000E+00  0.00000000E+00
  0.00000000E+00  0.00000000E+00  0.00000000E+00
  0.00000000E+00  0.00000000E+00  0.00000000E+00
  0.00000000E+00  0.00000000E+00  0.00000000E+00
  0.00000000E+00  0.00000000E+00  0.00000000E+00
  0.00000000E+00  0.00000000E+00  0.00000000E+00
  0.00000000E+00  0.00000000E+00  0.00000000E+00
  0.00000000E+00  0.00000000E+00  0.00000000E+00
  0.00000000E+00  0.00000000E+00  0.00000000E+00
  0.00000000E+00  0.00000000E+00  0.00000000E+00
  0.00000000E+00  0.00000000E+00  0.00000000E+00
  0.00000000E+00  0.00000000E+00  0.00000000E+00
  0.00000000E+00  0.00000000E+00  0.00000000E+00
  0.00000000E+00  0.00000000E+00  0.00000000E+00
  0.00000000E+00  0.00000000E+00  0.00000000E+00
  0.00000000E+00  0.00000000E+00  0.00000000E+00
  0.00000000E+00  0.00000000E+00  0.00000000E+00
  0.00000000E+00  0.00000000E+00  0.00000000E+00
  0.00000000E+00  0.00000000E+00  0.00000000E+00
  0.00000000E+00  0.00000000E+00  0.00000000E+00
  0.00000000E+00  0.00000000E+00  0.00000000E+00
  0.00000000E+00  0.00000000E+00  0.00000000E+00
  0.00000000E+00  0.00000000E+00  0.00000000E+00
  0.00000000E+00  0.00000000E+00  0.00000000E+00
  0.00000000E+00  0.00000000E+00  0.00000000E+00
  0.00000000E+00  0.00000000E+00  0.00000000E+00
