FeNiCoCrMn_SQSfcc160_31_Fe36            
   3.50000000000000     
    -1.5217968175385757    0.5044345383070122   -2.0201975021123029
     2.0260726715852959   -2.0215605663655225   -2.0189102177912743
    -3.0420489997132867   -3.0336596617749789    2.0172840032069126
   Fe   Ni   Co   Cr   Mn
    36    31    31    31    31
Direct
  0.9760625819686284  0.8599737701012596  0.0847040551687900
  0.8503830545569118  0.6754653603671400  0.0253108667585596
  0.8303454227745140  0.5349217506418311  0.1109794803080764
  0.8980826074119792  0.4484952259225574  0.3513486866708781
  0.7993671090166690  0.4014178674979053  0.2013346422810564
  0.7510671311523066  0.1279433139945998  0.3736298602057438
  0.6520119010487264  0.0762055668410099  0.2262527343322252
  0.8230390611326091  0.0360160504359097  0.6142224832337577
  0.5460064813927838  0.5251726826040738  0.0742168693355895
  0.8012255685548988  0.3995680969487564  0.6990309204050785
  0.5011182356979356  0.2492751450835802  0.2522767687535574
  0.3732613140575623  0.0585082098850792  0.1867275401187887
  0.4742091341044239  0.6090971781977083  0.3352019700973475
  0.3736070743801447  0.5648889550326037  0.1877558840824453
  0.7468514524422123  0.6271316006626859  0.8734678694388840
  0.5532285172030805  0.5219202039480625  0.5739907409379549
  0.7264066176266654  0.4897359050976467  0.9622526538627019
  0.6200635314341429  0.4378036835532733  0.8119588899256956
  0.3051269732300678  0.1473337059520888  0.4495527246184690
  0.2006506928683236  0.1034468631575514  0.3008119517813556
  0.1010140582272444  0.0449936782789305  0.1492359941734770
  0.3787386909121232  0.0650331158078920  0.6840729964470954
  0.4504638868753694  0.9748300952850208  0.4246346581391157
  0.3272500370431661  0.7869763690654894  0.3604624875693430
  0.5010286846835306  0.7488790701359500  0.7504542801108338
  0.2739334212131947  0.5140878143240512  0.5382910495415459
  0.3021897019733351  0.1561470163700737  0.9522340111184040
  0.3232234705735147  0.7911794076781364  0.8609283570907267
  0.1151370532168348  0.6877869737651858  0.5623590040645093
  0.3021904805681743  0.6490219603205992  0.9498529394586170
  0.0270083820843990  0.1375814172034480  0.9122642830446592
  0.1787181082519266  0.9684539106565034  0.8879459962481498
  0.0782927387851294  0.9113451665787379  0.7390546836100025
  0.1490958167101505  0.8273272167031629  0.9761362051153729
  0.0518423047150559  0.7733170568479216  0.8249556235805563
  0.0227344349912021  0.6328466042685690  0.9140354089379172
  0.9760700359567787  0.3617066541233108  0.0892987896506502
  0.8505992025073275  0.1727000514548804  0.0273059311102896
  0.8264515697983833  0.0364578359078374  0.1136005872760539
  0.8765481741265386  0.3130153911080399  0.4390628076352797
  0.8511071240237044  0.1735679243753020  0.5245699517933027
  0.9009993780465714  0.9503914862538897  0.3500931413834795
  0.7758265581735185  0.7614353835752210  0.2851894327201608
  0.9228657771204137  0.5867978021186876  0.7632427546731376
  0.8264346887309177  0.5354292446946249  0.6108044891430392
  0.4251400936372590  0.3420124022388574  0.0116625830354817
  0.7009161558187643  0.3486676735145805  0.5498114081165340
  0.4760549547867192  0.1110321953930705  0.3367322772846615
  0.7963066475612822  0.8974223169132090  0.7003803500091627
  0.3972007739190260  0.7009439391912278  0.0997049104847409
  0.7741454227808272  0.7628906691163735  0.7889254576559976
  0.6488340883294705  0.5740080108633049  0.7232701721281707
  0.5247490208448261  0.3876610226176080  0.6621291912017752
  0.6024469839371732  0.3021044909629714  0.9006160085904245
  0.2747290861988813  0.0129922063805472  0.5383639609235432
  0.4202841848914207  0.8387987270670181  0.5113860692826878
  0.2971769559324483  0.6517559657973814  0.4490393278069196
  0.5758346043360798  0.6636377522563984  0.9870275674232556
  0.0779453066068858  0.4146356596092957  0.2371134694032088
  0.4512914656579222  0.4778633347906632  0.9234887908048682
  0.3488832918118904  0.4269350192275244  0.7734244559933514
  0.2270834126390105  0.2396642778521265  0.7118194271802332
  0.1224511360931845  0.1858369937121594  0.5613675080719122
  0.1767192565147376  0.9621206878997310  0.3896573028885199
  0.2261040320152141  0.7350756752268330  0.7099057662257795
  0.0992753208656432  0.5482554295972999  0.6488099209324866
  0.0758604019470670  0.4126192401964459  0.7383187889108813
  0.9254464980659142  0.0890090633122509  0.2624873117037691
  0.9261123242488383  0.5867585490973748  0.2614400095200370
  0.9783053521513941  0.3634201692598188  0.5889841398626531
  0.7743039114482936  0.2655556272066588  0.2891948518337233
  0.6763070389689817  0.2129898142603484  0.1400842166363068
  0.7497786153723176  0.6227905242022476  0.3736261443313155
  0.6209148791515819  0.4388528770993468  0.3141769102080917
  0.6004774079981312  0.3024786628745991  0.4006651359765513
  0.5760057196419354  0.1630541127310571  0.4859103941148960
  0.6502828477945956  0.0713560029941847  0.7255167199499323
  0.6951812930702916  0.8491031999701020  0.5487239532055760
  0.5001395174304043  0.7505578314157705  0.2500225117530534
  0.2725353787615130  0.5143000164266803  0.0364060401430501
  0.3494823721920167  0.4227462671502151  0.2733459479071674
  0.4292514063590459  0.3404583860977651  0.5125993171293490
  0.1278541849484466  0.1867672396917278  0.0634407181789369
 -0.0018827584042778  0.0010392680383248 -0.0010505983918519
  0.2501566789100324  0.8747093024144807  0.1247725866539897
  0.6237123647707330  0.9365312867194463  0.8155151308616269
  0.1251900605634987  0.6862425595699079  0.0631876389555782
  0.2003099712611780  0.6031676025905957  0.2986986402655782
  0.1017952486753002  0.5503276290561945  0.1500156827932723
  0.0053885160164778  0.4992285728879869  0.0008524652908724
  0.4728681523379406  0.6120513945814161  0.8338052065382715
  0.3757924098934334  0.5627074126989157  0.6857224791092108
  0.2513467575737379  0.3761784832954373  0.6233409624548952
  0.0515401112270296  0.2761538258020634  0.3258986963321093
  0.2460802246249834  0.8751835029189424  0.6250628898405941
  0.0011157977251166  0.5004443816906542  0.4978167948082700
  0.1750491793878689  0.4616216028923198  0.8878292961770445
  0.0512223476088149  0.2728677464298717  0.8241214542919278
  0.9487183304015859  0.2271340491659394  0.6747733478946969
  0.5569138125338603  0.0295772626539296  0.0829043015320336
  0.9212654557578235  0.0805974313507406  0.7615629606198921
  0.8035804387260769  0.9045815817447070  0.1992505596823951
  0.9649929036029189  0.8643043549550196  0.5886602177770014
  0.9521842573685155  0.7235652877713143  0.6774255691444497
  0.8529617025258714  0.6762075147613157  0.5211514890938653
  0.6534099657615829  0.5748192114171830  0.2260090363086305
  0.7288217978301628  0.4888857877678623  0.4612809313709743
  0.9030483161031443  0.4444656347516978  0.8512319937364642
  0.4016405912070358  0.1978931670105355  0.0951392532353315
  0.7804895840173256  0.2507424121677986  0.7894684859184875
  0.2630162557508521  0.0146533638157963  0.0383548614453926
  0.5505107017489690  0.0208069636125309  0.5736006926832856
  0.7242454267736457  0.9931133652927696  0.4640774560338631
  0.6247729358399363  0.9348875479141642  0.3136885655544475
  0.5975521676190765  0.7969716202983895  0.3991985552728687
  0.5725021082172453  0.6639381595981813  0.4846685502617146
  0.4486011431974301  0.4770870478627391  0.4233842860630418
  0.2507737187320955  0.3764142244910147  0.1242100022422307
  0.3265160208778621  0.2869306290006448  0.3651845852489245
  0.5038320508510178  0.2483568588580526  0.7506872921907274
  0.3903499719581762  0.2056077282541427  0.5952732022875777
  0.5773589337475598  0.1698745782845801  0.9904164749861840
  0.5888663446923272  0.7984496826031291  0.8978492699147292
  0.0293896957548463  0.1372599107820441  0.4087915792374029
 -0.0019129375577263 -0.0081685715277211  0.5040685882686613
  0.0808381341136288  0.9181855869436100  0.2406394319651808
  0.4519438168126449  0.9829550629601255  0.9271025940438991
  0.0503863971769847  0.7758649411007589  0.3264637351280529
  0.1983225601168738  0.6037691719588451  0.8008922947598074
  0.9528964456733369  0.2237015455452337  0.1780758938139088
  0.9466388581857024  0.7228361405766172  0.1724113376349261
  0.6993521400611851  0.3499012944644169  0.0528395263437644
  0.7012498637834124  0.8484582145490965  0.0517848946318179
  0.8631851283302105  0.8124963662047414  0.4344568952021661
  0.6715355568095571  0.7138556079632028  0.1363029460085332
  0.5236672729845424  0.3820054332863930  0.1633416838483664
  0.8767096873671306  0.3099277426215273  0.9425524052220413
  0.6636900284253344  0.2055588708714221  0.6349901730024567
  0.7420515790268247  0.1231528766759806  0.8785686034428359
  0.5220495435879472  0.8858956660348907  0.1651797921711181
  0.4313274526255728  0.8428391000098474  0.0163968622380236
  0.8978473225194710  0.9498417099523869  0.8498753303848566
  0.8789337700861601  0.8122339376036973  0.9370613526636447
  0.6814646449254611  0.7114492919709590  0.6367573428411679
  0.2236737262282093  0.2346791405671677  0.2095254831220416
  0.4768804650167505  0.1065545917693378  0.8342185397890746
  0.3487422036243966  0.9250767192896855  0.2743769156902333
  0.7249872131646737  0.9836316175715454  0.9654394541812092
  0.5253004613022999  0.8894695676101969  0.6644354554284925
  0.2196853241242706  0.7388920117906989  0.2112197476715937
  0.3942377961017394  0.7024266340436585  0.5975062639433852
  0.1794024490456148  0.4665509249984455  0.3844898381578872
  0.1501396576311484  0.3239538926908397  0.4740834212420409
  0.3260688916329464  0.2904276834801454  0.8615179321634342
  0.2075078695544991  0.1052328665273816  0.8021490399035122
  0.1055035142274726  0.0539429950896306  0.6538468216661845
  0.3510467802114156  0.9193969961152808  0.7720839681337655
  0.1482910627043794  0.8241303488065230  0.4761598069304863
  0.0243401547186945  0.6372662387472596  0.4111376485266819
  0.1523258857958956  0.3232660163218289  0.9795226413550681
 
  0.00000000E+00  0.00000000E+00  0.00000000E+00
  0.00000000E+00  0.00000000E+00  0.00000000E+00
  0.00000000E+00  0.00000000E+00  0.00000000E+00
  0.00000000E+00  0.00000000E+00  0.00000000E+00
  0.00000000E+00  0.00000000E+00  0.00000000E+00
  0.00000000E+00  0.00000000E+00  0.00000000E+00
  0.00000000E+00  0.00000000E+00  0.00000000E+00
  0.00000000E+00  0.00000000E+00  0.00000000E+00
  0.00000000E+00  0.00000000E+00  0.00000000E+00
  0.00000000E+00  0.00000000E+00  0.00000000E+00
  0.00000000E+00  0.00000000E+00  0.00000000E+00
  0.00000000E+00  0.00000000E+00  0.00000000E+00
  0.00000000E+00  0.00000000E+00  0.00000000E+00
  0.00000000E+00  0.00000000E+00  0.00000000E+00
  0.00000000E+00  0.00000000E+00  0.00000000E+00
  0.00000000E+00  0.00000000E+00  0.00000000E+00
  0.00000000E+00  0.00000000E+00  0.00000000E+00
  0.00000000E+00  0.00000000E+00  0.00000000E+00
  0.00000000E+00  0.00000000E+00  0.00000000E+00
  0.00000000E+00  0.00000000E+00  0.00000000E+00
  0.00000000E+00  0.00000000E+00  0.00000000E+00
  0.00000000E+00  0.00000000E+00  0.00000000E+00
  0.00000000E+00  0.00000000E+00  0.00000000E+00
  0.00000000E+00  0.00000000E+00  0.00000000E+00
  0.00000000E+00  0.00000000E+00  0.00000000E+00
  0.00000000E+00  0.00000000E+00  0.00000000E+00
  0.00000000E+00  0.00000000E+00  0.00000000E+00
  0.00000000E+00  0.00000000E+00  0.00000000E+00
  0.00000000E+00  0.00000000E+00  0.00000000E+00
  0.00000000E+00  0.00000000E+00  0.00000000E+00
  0.00000000E+00  0.00000000E+00  0.00000000E+00
  0.00000000E+00  0.00000000E+00  0.00000000E+00
  0.00000000E+00  0.00000000E+00  0.00000000E+00
  0.00000000E+00  0.00000000E+00  0.00000000E+00
  0.00000000E+00  0.00000000E+00  0.00000000E+00
  0.00000000E+00  0.00000000E+00  0.00000000E+00
  0.00000000E+00  0.00000000E+00  0.00000000E+00
  0.00000000E+00  0.00000000E+00  0.00000000E+00
  0.00000000E+00  0.00000000E+00  0.00000000E+00
  0.00000000E+00  0.00000000E+00  0.00000000E+00
  0.00000000E+00  0.00000000E+00  0.00000000E+00
  0.00000000E+00  0.00000000E+00  0.00000000E+00
  0.00000000E+00  0.00000000E+00  0.00000000E+00
  0.00000000E+00  0.00000000E+00  0.00000000E+00
  0.00000000E+00  0.00000000E+00  0.00000000E+00
  0.00000000E+00  0.00000000E+00  0.00000000E+00
  0.00000000E+00  0.00000000E+00  0.00000000E+00
  0.00000000E+00  0.00000000E+00  0.00000000E+00
  0.00000000E+00  0.00000000E+00  0.00000000E+00
  0.00000000E+00  0.00000000E+00  0.00000000E+00
  0.00000000E+00  0.00000000E+00  0.00000000E+00
  0.00000000E+00  0.00000000E+00  0.00000000E+00
  0.00000000E+00  0.00000000E+00  0.00000000E+00
  0.00000000E+00  0.00000000E+00  0.00000000E+00
  0.00000000E+00  0.00000000E+00  0.00000000E+00
  0.00000000E+00  0.00000000E+00  0.00000000E+00
  0.00000000E+00  0.00000000E+00  0.00000000E+00
  0.00000000E+00  0.00000000E+00  0.00000000E+00
  0.00000000E+00  0.00000000E+00  0.00000000E+00
  0.00000000E+00  0.00000000E+00  0.00000000E+00
  0.00000000E+00  0.00000000E+00  0.00000000E+00
  0.00000000E+00  0.00000000E+00  0.00000000E+00
  0.00000000E+00  0.00000000E+00  0.00000000E+00
  0.00000000E+00  0.00000000E+00  0.00000000E+00
  0.00000000E+00  0.00000000E+00  0.00000000E+00
  0.00000000E+00  0.00000000E+00  0.00000000E+00
  0.00000000E+00  0.00000000E+00  0.00000000E+00
  0.00000000E+00  0.00000000E+00  0.00000000E+00
  0.00000000E+00  0.00000000E+00  0.00000000E+00
  0.00000000E+00  0.00000000E+00  0.00000000E+00
  0.00000000E+00  0.00000000E+00  0.00000000E+00
  0.00000000E+00  0.00000000E+00  0.00000000E+00
  0.00000000E+00  0.00000000E+00  0.00000000E+00
  0.00000000E+00  0.00000000E+00  0.00000000E+00
  0.00000000E+00  0.00000000E+00  0.00000000E+00
  0.00000000E+00  0.00000000E+00  0.00000000E+00
  0.00000000E+00  0.00000000E+00  0.00000000E+00
  0.00000000E+00  0.00000000E+00  0.00000000E+00
  0.00000000E+00  0.00000000E+00  0.00000000E+00
  0.00000000E+00  0.00000000E+00  0.00000000E+00
  0.00000000E+00  0.00000000E+00  0.00000000E+00
  0.00000000E+00  0.00000000E+00  0.00000000E+00
  0.00000000E+00  0.00000000E+00  0.00000000E+00
  0.00000000E+00  0.00000000E+00  0.00000000E+00
  0.00000000E+00  0.00000000E+00  0.00000000E+00
  0.00000000E+00  0.00000000E+00  0.00000000E+00
  0.00000000E+00  0.00000000E+00  0.00000000E+00
  0.00000000E+00  0.00000000E+00  0.00000000E+00
  0.00000000E+00  0.00000000E+00  0.00000000E+00
  0.00000000E+00  0.00000000E+00  0.00000000E+00
  0.00000000E+00  0.00000000E+00  0.00000000E+00
  0.00000000E+00  0.00000000E+00  0.00000000E+00
  0.00000000E+00  0.00000000E+00  0.00000000E+00
  0.00000000E+00  0.00000000E+00  0.00000000E+00
  0.00000000E+00  0.00000000E+00  0.00000000E+00
  0.00000000E+00  0.00000000E+00  0.00000000E+00
  0.00000000E+00  0.00000000E+00  0.00000000E+00
  0.00000000E+00  0.00000000E+00  0.00000000E+00
  0.00000000E+00  0.00000000E+00  0.00000000E+00
  0.00000000E+00  0.00000000E+00  0.00000000E+00
  0.00000000E+00  0.00000000E+00  0.00000000E+00
  0.00000000E+00  0.00000000E+00  0.00000000E+00
  0.00000000E+00  0.00000000E+00  0.00000000E+00
  0.00000000E+00  0.00000000E+00  0.00000000E+00
  0.00000000E+00  0.00000000E+00  0.00000000E+00
  0.00000000E+00  0.00000000E+00  0.00000000E+00
  0.00000000E+00  0.00000000E+00  0.00000000E+00
  0.00000000E+00  0.00000000E+00  0.00000000E+00
  0.00000000E+00  0.00000000E+00  0.00000000E+00
  0.00000000E+00  0.00000000E+00  0.00000000E+00
  0.00000000E+00  0.00000000E+00  0.00000000E+00
  0.00000000E+00  0.00000000E+00  0.00000000E+00
  0.00000000E+00  0.00000000E+00  0.00000000E+00
  0.00000000E+00  0.00000000E+00  0.00000000E+00
  0.00000000E+00  0.00000000E+00  0.00000000E+00
  0.00000000E+00  0.00000000E+00  0.00000000E+00
  0.00000000E+00  0.00000000E+00  0.00000000E+00
  0.00000000E+00  0.00000000E+00  0.00000000E+00
  0.00000000E+00  0.00000000E+00  0.00000000E+00
  0.00000000E+00  0.00000000E+00  0.00000000E+00
  0.00000000E+00  0.00000000E+00  0.00000000E+00
  0.00000000E+00  0.00000000E+00  0.00000000E+00
  0.00000000E+00  0.00000000E+00  0.00000000E+00
  0.00000000E+00  0.00000000E+00  0.00000000E+00
  0.00000000E+00  0.00000000E+00  0.00000000E+00
  0.00000000E+00  0.00000000E+00  0.00000000E+00
  0.00000000E+00  0.00000000E+00  0.00000000E+00
  0.00000000E+00  0.00000000E+00  0.00000000E+00
  0.00000000E+00  0.00000000E+00  0.00000000E+00
  0.00000000E+00  0.00000000E+00  0.00000000E+00
  0.00000000E+00  0.00000000E+00  0.00000000E+00
  0.00000000E+00  0.00000000E+00  0.00000000E+00
  0.00000000E+00  0.00000000E+00  0.00000000E+00
  0.00000000E+00  0.00000000E+00  0.00000000E+00
  0.00000000E+00  0.00000000E+00  0.00000000E+00
  0.00000000E+00  0.00000000E+00  0.00000000E+00
  0.00000000E+00  0.00000000E+00  0.00000000E+00
  0.00000000E+00  0.00000000E+00  0.00000000E+00
  0.00000000E+00  0.00000000E+00  0.00000000E+00
  0.00000000E+00  0.00000000E+00  0.00000000E+00
  0.00000000E+00  0.00000000E+00  0.00000000E+00
  0.00000000E+00  0.00000000E+00  0.00000000E+00
  0.00000000E+00  0.00000000E+00  0.00000000E+00
  0.00000000E+00  0.00000000E+00  0.00000000E+00
  0.00000000E+00  0.00000000E+00  0.00000000E+00
  0.00000000E+00  0.00000000E+00  0.00000000E+00
  0.00000000E+00  0.00000000E+00  0.00000000E+00
  0.00000000E+00  0.00000000E+00  0.00000000E+00
  0.00000000E+00  0.00000000E+00  0.00000000E+00
  0.00000000E+00  0.00000000E+00  0.00000000E+00
  0.00000000E+00  0.00000000E+00  0.00000000E+00
  0.00000000E+00  0.00000000E+00  0.00000000E+00
  0.00000000E+00  0.00000000E+00  0.00000000E+00
  0.00000000E+00  0.00000000E+00  0.00000000E+00
  0.00000000E+00  0.00000000E+00  0.00000000E+00
  0.00000000E+00  0.00000000E+00  0.00000000E+00
  0.00000000E+00  0.00000000E+00  0.00000000E+00
  0.00000000E+00  0.00000000E+00  0.00000000E+00
  0.00000000E+00  0.00000000E+00  0.00000000E+00
  0.00000000E+00  0.00000000E+00  0.00000000E+00
