FeNiCoCrPd_SQSbcc160_N01p24             
   2.80000000000000     
     3.2713138314719910    0.4644563807391245    3.2240524311721082
     3.2703511840378079   -3.2320024085845680   -0.4694807729240159
     3.2758858047187176    2.3060177870543148   -2.3096615189450151
   Fe   Ni   Co   Cr   Pd
    32    32    32    32    32
Direct
  1.0002928590304789  0.9937866383246536  0.0069035204850336
  0.1163587210382429  0.1241380633185678  0.1555039093902696
  0.4445244779127730  0.1861866915275246  0.1707279126231658
  0.9342391763170759  0.1899497530763997  0.2837015837649426
  0.1198725816582183  0.6224289849088623  0.0495197125357958
  0.6869057754475589  0.4327884299330265  0.2825299239353429
  0.6224742575274255  0.6240801665479524  0.1546049509255208
  0.7550840214595379  0.7472907788016272  0.1011404619345978
  0.1218909859265904  0.1348008333525260  0.5496051559132986
  0.0519318382372847  0.3178966480635101  0.4290355418961252
  0.2447875454680269  0.2591975649369527  0.5019086062076539
  0.1836056170754763  0.4487678418514142  0.3769962538558356
  0.0682572345781158  0.8060966601163776  0.1303511389789445
  0.2575340424274849  0.7526548270394373  0.2064766463068696
  0.1912475499830343  0.9333903508071523  0.0784249881175816
  0.7482249439942258  0.7479847216879758  0.2957656459273011
  0.2400557868151646  0.2577742676183891  0.6953111566904707
  0.6263319450166689  0.1329348333714695  0.8408334383793772
  0.0013117610365879  0.4940956117204455  0.5094938876858659
  0.1852755915064749  0.4444341803728053  0.5795013111856085
  0.3720662931769744  0.3793645944158049  0.6492578678732249
  0.6856177277230624  0.4342102070209591  0.6693591263786363
  0.8786928578038877  0.3769249290853039  0.7432129782648528
  0.2584083174417830  0.7409922180901878  0.4016766873935025
  0.3807547609911862  0.8642984921521508  0.3398075073084337
  0.9448483698976901  0.6755052869517285  0.5838607686650366
  0.4374585601786887  0.1869954086906813  0.9755851991899132
  0.8812272484131601  0.3769459053398304  0.9538704211437473
  0.6307048505025369  0.6196239502531952  0.7427917271256136
  0.5705661517423714  0.7952410962884010  0.6214259723352910
  0.6900633256552664  0.9436030366829388  0.7726179454321106
  0.1865798902980400  0.9371893526189573  0.8724989584496227
  0.3101236287949422  0.0601204447280365  0.0271909081677594
  0.8098980778295771  0.0621106443495588  0.1211313541867707
  0.0052777730604348  0.9977856266759928  0.1967995014660139
  0.4992558447136402  0.4995732205761741  0.0018516173787566
  0.8712664261711563  0.3690376680522967  0.1527061321142525
  0.8216376117084362  0.5564948604802197  0.0230167575453011
  0.6264898217781134  0.1338053933813132  0.4526225448337288
  0.7458471978522300  0.2543771314663683  0.4031307770171342
  0.8702162716114217  0.3680856626884122  0.3558491602366760
  0.3026787418672899  0.0752991213561371  0.6250542509631036
  0.3730811713786786  0.3817073124609547  0.4518697569414735
  0.5612141185431426  0.3174450436398068  0.5250459186240647
  0.3141891717020571  0.5679622520661665  0.3278912400294810
  0.6837445870892948  0.4333420029757487  0.4766819954595942
  0.8724334301348633  0.3689155612350590  0.5543916437451656
  0.6881050017035516  0.9359202680931161  0.1742880908993145
  0.4349475799022244  0.1963801473808508  0.7760286012143015
  0.1275881863784188  0.6218198636168094  0.4523347939888247
  0.4972816715677782  0.5000341782581506  0.6049089093578892
  0.0707309316135098  0.8100689046859602  0.3241862493010370
  0.1851975751724068  0.9335906930283173  0.2710519801990406
  0.5638829034383651  0.7992227639594527  0.4238105240563659
  0.0031120229169410  0.4961784857285674  0.7040124310183665
  0.3718654032580010  0.3760526938265197  0.8445248430857176
  0.5055497448892111  0.5008551475552879  0.7951775973786364
  0.2567897071553397  0.7423753414660258  0.6022777446797665
  0.7609294754416265  0.7391991465253887  0.7005337001725426
  0.9459337236125290  0.6792334870724521  0.7732684462802722
  0.8798056271758580  0.8738719094289138  0.6499585088244397
  0.1841170900918536  0.4386203937885800  0.9703485876551047
  0.1259302829984446  0.6236629377749652  0.8495191777761637
  0.9429054142330712  0.6828367739485991  0.9773160750745301
  0.4955596899509063  0.0059910340347570  0.1007834661564753
  0.6198596501923728  0.1266294164107729  0.0564519978948085
  0.0536868062799932  0.3212084483543832  0.0217301065539991
  0.6249220430383562  0.1339212642258683  0.2442115598709463
  0.5615416322244069  0.3102827990158857  0.1280258598644381
  0.1129914001691452  0.1312431324844636  0.3589144080763881
  0.2997021849311825  0.0759524214061139  0.4290000009139810
  0.8080527969679867  0.0719616365642447  0.5288308346264012
  0.1834742183761875  0.4460965093042204  0.1695301955046397
  0.5674894193639570  0.3132456886059716  0.3238959461001867
  0.9452932316117407  0.6820874371706837  0.1720002630064739
  0.4985785229620122  0.0112567887971909  0.7024633143179464
  0.6244744780077134  0.1327619699584361  0.6536055053433786
  0.8061844697509967  0.0683630969294322  0.7186830731146595
  0.0118120249530271  0.4982735323446825  0.3022282244873470
  0.7462889038650985  0.2499665683464777  0.6012955723571436
  0.9323438868091007  0.1916554436238309  0.6713775518330979
  0.4402995111541456  0.6880300725128817  0.2683248620502285
  0.5694842569229405  0.8050373058803646  0.2209324118968981
  0.1231721184656575  0.1342691846744064  0.7431571978064903
  0.5605421645604374  0.3148187920431779  0.7206215850203357
  0.7500169572016089  0.2528961564288996  0.7893376293960087
  0.6218551549987928  0.6175974315291700  0.5512828755721398
  0.8142344568395341  0.5529488845122352  0.6324918344945047
  0.1865986284458938  0.4417663992777733  0.7742154836347557
  0.4402041430648910  0.6805994166866782  0.6739328451607089
  0.8232408762851022  0.5545990757819667  0.8219744717589542
  0.0018056901572097  0.4995810983511184  0.8977388692253511
  0.2502923479623477  0.7470853508562726  0.7972462087888011
  0.4392331385347303  0.6844269988908117  0.8680113063570095
  0.0643120816522787  0.8062101302810259  0.9306892325148038
  0.3652682441178393  0.8819971413763082  0.9491865240337979
  0.7416246739589138  0.2462622789817880  0.0012143323585197
  0.9324467345091262  0.1870987415516623  0.0847843724368115
  0.3743975041090647  0.3741919916519222  0.0520916924076341
  0.7505207858187639  0.2471260226701381  0.1939419776485364
  0.0003157445580138  1.0000824347661006  0.3961201848820236
  0.2418176565054757  0.2545805371304145  0.3022511537287184
  0.0069375527598323  0.5009623900588522  0.0934272293366650
  0.9309590297952351  0.1900551836151773  0.4829407231204558
  0.3168862578859143  0.5651538014542189  0.1295892738072312
  0.5042846338822553  0.5003227727242336  0.2098562362165070
  0.4401753730239070  0.6891287171510136  0.0697620593788181
  0.5466916762775441  0.8128349303753888  0.0320399708863109
  0.8829524742905250  0.8703335793656588  0.0480294731266227
  0.9901951831460862  0.0095934364103869  0.5895764687484344
  0.1292627270283703  0.6260206024559627  0.2483208697630245
  0.4958218843698767  0.5074121366014317  0.4107004119068926
  0.6229806597971185  0.6213935884127869  0.3460304563510618
  0.3775192685175091  0.8747196291723766  0.1487528844374222
  0.9578726414862199  0.6761695435613368  0.3661571137895904
  0.3093857612546698  0.0726446558096870  0.8172790746619831
  0.0576897184374028  0.3147371976175600  0.6212834459055028
  0.8075310129855516  0.0694697581084437  0.9271503356538939
  0.3107818946961507  0.5603621770464725  0.5275036541447582
  0.4379166080518587  0.6875494481107134  0.4786408712222393
  0.8814876811413993  0.8794412306129534  0.4539919501454301
  0.0688512809057700  0.3185522258041276  0.8283734467836424
  0.2455315992529529  0.2585039032913148  0.8914532124571071
  0.1283918160347313  0.6183788599663735  0.6561947771735965
  0.3067372345215675  0.5674701483400204  0.7191621769939759
  0.6926226955497151  0.4305236817222417  0.8742789313299667
  0.3763129053436848  0.8646709230305170  0.5437675911501871
  0.0701388552425532  0.7997810841282817  0.7288886608954227
  0.3027428847914871  0.0632026472673194  0.2289037368440755
  0.4971982541391050  0.9934397348050418  0.2980921808682623
  0.2467510778552071  0.2542966633908724  0.0943398306748085
  0.8111445984792054  0.0692448571530284  0.3239041745669296
  0.6879415270934033  0.4348254023314926  0.0796980485122784
  0.4913292520535422  0.9916182110596736  0.5100198970284492
  0.0546625100160606  0.3176622630525340  0.2261944745562097
  0.4379876274750263  0.1870060733694817  0.3752286474108249
  0.3710312883919485  0.3793900409511066  0.2514485589811654
  0.2509552608455782  0.7510873169758620  0.9992599963179939
  0.8185780073537271  0.5565819929157277  0.2212230388116475
  0.4350903752236915  0.1943618141006793  0.5793506713254235
  0.8173952271956214  0.5539348653411931  0.4275426462565345
  0.8809920256863770  0.8686516073445607  0.2496995908053969
  0.9972152270963259  0.0057374698100164  0.7995947012489892
  0.4929328243653122  0.0068897001482455  0.8996783550619989
  0.9309712113238066  0.1972064707985784  0.8755481380741390
  0.7603425118479323  0.7421575433220952  0.5001278718511744
  0.6854844125363900  0.9383150955417111  0.3745800166554367
  0.1246442930047973  0.1244082991447677  0.9530863675330318
  0.5585190756607764  0.3145398584811562  0.9221458412421798
  0.0666715766557778  0.8062969402861280  0.5279249982420776
  0.1906947648374921  0.9405258831411980  0.4638402222323912
  0.6892537662214583  0.9386934424325224  0.5815814637113648
  0.3146931501083992  0.5580366021674574  0.9227711781772798
  0.6267200705165443  0.6199205294953336  0.9454826099868486
  0.1852584819710990  0.9383745022469306  0.6683368364048364
  0.3769210768093124  0.8762605567409948  0.7440164484041705
  0.5657258789243993  0.8143603206274106  0.8182123409835327
  0.7563093508810385  0.7435179757964265  0.9013654270657770
  0.8805147472429595  0.8724368908170868  0.8478002955086176
  0.6842497263754260  0.9411727833459256  0.9801944381030163
 
  0.00000000E+00  0.00000000E+00  0.00000000E+00
  0.00000000E+00  0.00000000E+00  0.00000000E+00
  0.00000000E+00  0.00000000E+00  0.00000000E+00
  0.00000000E+00  0.00000000E+00  0.00000000E+00
  0.00000000E+00  0.00000000E+00  0.00000000E+00
  0.00000000E+00  0.00000000E+00  0.00000000E+00
  0.00000000E+00  0.00000000E+00  0.00000000E+00
  0.00000000E+00  0.00000000E+00  0.00000000E+00
  0.00000000E+00  0.00000000E+00  0.00000000E+00
  0.00000000E+00  0.00000000E+00  0.00000000E+00
  0.00000000E+00  0.00000000E+00  0.00000000E+00
  0.00000000E+00  0.00000000E+00  0.00000000E+00
  0.00000000E+00  0.00000000E+00  0.00000000E+00
  0.00000000E+00  0.00000000E+00  0.00000000E+00
  0.00000000E+00  0.00000000E+00  0.00000000E+00
  0.00000000E+00  0.00000000E+00  0.00000000E+00
  0.00000000E+00  0.00000000E+00  0.00000000E+00
  0.00000000E+00  0.00000000E+00  0.00000000E+00
  0.00000000E+00  0.00000000E+00  0.00000000E+00
  0.00000000E+00  0.00000000E+00  0.00000000E+00
  0.00000000E+00  0.00000000E+00  0.00000000E+00
  0.00000000E+00  0.00000000E+00  0.00000000E+00
  0.00000000E+00  0.00000000E+00  0.00000000E+00
  0.00000000E+00  0.00000000E+00  0.00000000E+00
  0.00000000E+00  0.00000000E+00  0.00000000E+00
  0.00000000E+00  0.00000000E+00  0.00000000E+00
  0.00000000E+00  0.00000000E+00  0.00000000E+00
  0.00000000E+00  0.00000000E+00  0.00000000E+00
  0.00000000E+00  0.00000000E+00  0.00000000E+00
  0.00000000E+00  0.00000000E+00  0.00000000E+00
  0.00000000E+00  0.00000000E+00  0.00000000E+00
  0.00000000E+00  0.00000000E+00  0.00000000E+00
  0.00000000E+00  0.00000000E+00  0.00000000E+00
  0.00000000E+00  0.00000000E+00  0.00000000E+00
  0.00000000E+00  0.00000000E+00  0.00000000E+00
  0.00000000E+00  0.00000000E+00  0.00000000E+00
  0.00000000E+00  0.00000000E+00  0.00000000E+00
  0.00000000E+00  0.00000000E+00  0.00000000E+00
  0.00000000E+00  0.00000000E+00  0.00000000E+00
  0.00000000E+00  0.00000000E+00  0.00000000E+00
  0.00000000E+00  0.00000000E+00  0.00000000E+00
  0.00000000E+00  0.00000000E+00  0.00000000E+00
  0.00000000E+00  0.00000000E+00  0.00000000E+00
  0.00000000E+00  0.00000000E+00  0.00000000E+00
  0.00000000E+00  0.00000000E+00  0.00000000E+00
  0.00000000E+00  0.00000000E+00  0.00000000E+00
  0.00000000E+00  0.00000000E+00  0.00000000E+00
  0.00000000E+00  0.00000000E+00  0.00000000E+00
  0.00000000E+00  0.00000000E+00  0.00000000E+00
  0.00000000E+00  0.00000000E+00  0.00000000E+00
  0.00000000E+00  0.00000000E+00  0.00000000E+00
  0.00000000E+00  0.00000000E+00  0.00000000E+00
  0.00000000E+00  0.00000000E+00  0.00000000E+00
  0.00000000E+00  0.00000000E+00  0.00000000E+00
  0.00000000E+00  0.00000000E+00  0.00000000E+00
  0.00000000E+00  0.00000000E+00  0.00000000E+00
  0.00000000E+00  0.00000000E+00  0.00000000E+00
  0.00000000E+00  0.00000000E+00  0.00000000E+00
  0.00000000E+00  0.00000000E+00  0.00000000E+00
  0.00000000E+00  0.00000000E+00  0.00000000E+00
  0.00000000E+00  0.00000000E+00  0.00000000E+00
  0.00000000E+00  0.00000000E+00  0.00000000E+00
  0.00000000E+00  0.00000000E+00  0.00000000E+00
  0.00000000E+00  0.00000000E+00  0.00000000E+00
  0.00000000E+00  0.00000000E+00  0.00000000E+00
  0.00000000E+00  0.00000000E+00  0.00000000E+00
  0.00000000E+00  0.00000000E+00  0.00000000E+00
  0.00000000E+00  0.00000000E+00  0.00000000E+00
  0.00000000E+00  0.00000000E+00  0.00000000E+00
  0.00000000E+00  0.00000000E+00  0.00000000E+00
  0.00000000E+00  0.00000000E+00  0.00000000E+00
  0.00000000E+00  0.00000000E+00  0.00000000E+00
  0.00000000E+00  0.00000000E+00  0.00000000E+00
  0.00000000E+00  0.00000000E+00  0.00000000E+00
  0.00000000E+00  0.00000000E+00  0.00000000E+00
  0.00000000E+00  0.00000000E+00  0.00000000E+00
  0.00000000E+00  0.00000000E+00  0.00000000E+00
  0.00000000E+00  0.00000000E+00  0.00000000E+00
  0.00000000E+00  0.00000000E+00  0.00000000E+00
  0.00000000E+00  0.00000000E+00  0.00000000E+00
  0.00000000E+00  0.00000000E+00  0.00000000E+00
  0.00000000E+00  0.00000000E+00  0.00000000E+00
  0.00000000E+00  0.00000000E+00  0.00000000E+00
  0.00000000E+00  0.00000000E+00  0.00000000E+00
  0.00000000E+00  0.00000000E+00  0.00000000E+00
  0.00000000E+00  0.00000000E+00  0.00000000E+00
  0.00000000E+00  0.00000000E+00  0.00000000E+00
  0.00000000E+00  0.00000000E+00  0.00000000E+00
  0.00000000E+00  0.00000000E+00  0.00000000E+00
  0.00000000E+00  0.00000000E+00  0.00000000E+00
  0.00000000E+00  0.00000000E+00  0.00000000E+00
  0.00000000E+00  0.00000000E+00  0.00000000E+00
  0.00000000E+00  0.00000000E+00  0.00000000E+00
  0.00000000E+00  0.00000000E+00  0.00000000E+00
  0.00000000E+00  0.00000000E+00  0.00000000E+00
  0.00000000E+00  0.00000000E+00  0.00000000E+00
  0.00000000E+00  0.00000000E+00  0.00000000E+00
  0.00000000E+00  0.00000000E+00  0.00000000E+00
  0.00000000E+00  0.00000000E+00  0.00000000E+00
  0.00000000E+00  0.00000000E+00  0.00000000E+00
  0.00000000E+00  0.00000000E+00  0.00000000E+00
  0.00000000E+00  0.00000000E+00  0.00000000E+00
  0.00000000E+00  0.00000000E+00  0.00000000E+00
  0.00000000E+00  0.00000000E+00  0.00000000E+00
  0.00000000E+00  0.00000000E+00  0.00000000E+00
  0.00000000E+00  0.00000000E+00  0.00000000E+00
  0.00000000E+00  0.00000000E+00  0.00000000E+00
  0.00000000E+00  0.00000000E+00  0.00000000E+00
  0.00000000E+00  0.00000000E+00  0.00000000E+00
  0.00000000E+00  0.00000000E+00  0.00000000E+00
  0.00000000E+00  0.00000000E+00  0.00000000E+00
  0.00000000E+00  0.00000000E+00  0.00000000E+00
  0.00000000E+00  0.00000000E+00  0.00000000E+00
  0.00000000E+00  0.00000000E+00  0.00000000E+00
  0.00000000E+00  0.00000000E+00  0.00000000E+00
  0.00000000E+00  0.00000000E+00  0.00000000E+00
  0.00000000E+00  0.00000000E+00  0.00000000E+00
  0.00000000E+00  0.00000000E+00  0.00000000E+00
  0.00000000E+00  0.00000000E+00  0.00000000E+00
  0.00000000E+00  0.00000000E+00  0.00000000E+00
  0.00000000E+00  0.00000000E+00  0.00000000E+00
  0.00000000E+00  0.00000000E+00  0.00000000E+00
  0.00000000E+00  0.00000000E+00  0.00000000E+00
  0.00000000E+00  0.00000000E+00  0.00000000E+00
  0.00000000E+00  0.00000000E+00  0.00000000E+00
  0.00000000E+00  0.00000000E+00  0.00000000E+00
  0.00000000E+00  0.00000000E+00  0.00000000E+00
  0.00000000E+00  0.00000000E+00  0.00000000E+00
  0.00000000E+00  0.00000000E+00  0.00000000E+00
  0.00000000E+00  0.00000000E+00  0.00000000E+00
  0.00000000E+00  0.00000000E+00  0.00000000E+00
  0.00000000E+00  0.00000000E+00  0.00000000E+00
  0.00000000E+00  0.00000000E+00  0.00000000E+00
  0.00000000E+00  0.00000000E+00  0.00000000E+00
  0.00000000E+00  0.00000000E+00  0.00000000E+00
  0.00000000E+00  0.00000000E+00  0.00000000E+00
  0.00000000E+00  0.00000000E+00  0.00000000E+00
  0.00000000E+00  0.00000000E+00  0.00000000E+00
  0.00000000E+00  0.00000000E+00  0.00000000E+00
  0.00000000E+00  0.00000000E+00  0.00000000E+00
  0.00000000E+00  0.00000000E+00  0.00000000E+00
  0.00000000E+00  0.00000000E+00  0.00000000E+00
  0.00000000E+00  0.00000000E+00  0.00000000E+00
  0.00000000E+00  0.00000000E+00  0.00000000E+00
  0.00000000E+00  0.00000000E+00  0.00000000E+00
  0.00000000E+00  0.00000000E+00  0.00000000E+00
  0.00000000E+00  0.00000000E+00  0.00000000E+00
  0.00000000E+00  0.00000000E+00  0.00000000E+00
  0.00000000E+00  0.00000000E+00  0.00000000E+00
  0.00000000E+00  0.00000000E+00  0.00000000E+00
  0.00000000E+00  0.00000000E+00  0.00000000E+00
  0.00000000E+00  0.00000000E+00  0.00000000E+00
  0.00000000E+00  0.00000000E+00  0.00000000E+00
  0.00000000E+00  0.00000000E+00  0.00000000E+00
  0.00000000E+00  0.00000000E+00  0.00000000E+00
  0.00000000E+00  0.00000000E+00  0.00000000E+00
  0.00000000E+00  0.00000000E+00  0.00000000E+00
  0.00000000E+00  0.00000000E+00  0.00000000E+00
  0.00000000E+00  0.00000000E+00  0.00000000E+00
  0.00000000E+00  0.00000000E+00  0.00000000E+00
