FeNiCoCrPd_SQSfcc24_Ni64                
   3.80000000000000     
     2.3799509307445050   -1.4283936754948092    1.9117685063451795
     1.4250753381486276    2.3818312423366184   -1.9072544212719602
    -1.4245040932146726    2.3830470507560637    1.9092118098649447
   Fe   Ni   Co   Cr   Pd
    24    64    24    24    24
Direct
  0.0326360651226479  0.9559309411048169  0.6631689516531810
  0.0657133493303158  0.5014886708936580  0.9244042392597879
  0.0987720792016730  0.4590865865739340  0.6059540476930034
  0.3004124424521578  0.8931331645533954  0.0803130320137073
  0.4388172211159849  0.6949567888872833  0.7612096632075143
  0.4153246088495411  0.5504009565526122  0.8971404099900443
  0.3777904871916859  0.5936242950901229  0.2282733950024392
  0.5025313261340760  0.7914048196773968  0.3056610360208323
  0.4733465504120809  0.6491416397095906  0.4353072644299353
  0.4336953936481320  0.5016171903448582  0.5583516639824114
  0.2478842409547256  0.9940374258511935  0.7442946186088566
  0.6579342748486368  0.5496012626605595  0.6387024656163354
  0.7733653213661414  0.7484477144324019  0.7180439819219048
  0.3687414317371809  0.9981156587362914  0.6210188262559727
  0.6294493342306239  0.4032224158217437  0.7779663076205545
  0.8712974761124765  0.8027781469095134  0.9254281808592411
  0.7177550663595278  0.4507925540406029  0.9815546693459473
  0.5936023979896852  0.4543811788182861  0.1002544878640801
  0.9063515258536067  0.7429099066752873  0.5844928833017133
  0.9657311602735167  0.6507514284804774  0.9236398263923542
  0.6867216496549408  0.1028221901212873  0.9085147336315081
  0.5560764049795862  0.1046723163349501  0.0330585531027432
  0.8377221243721098  0.2463695251627128  0.6550514532742333
  0.8116493601972390  0.0964269229330843  0.7886449023954754
  0.0645908894094667  0.8950762562027205  0.3432933043000698
  0.0342875766581714  0.7484631899342542  0.4678223893070985
  0.0043600429598124  0.6039053011269233  0.5998200224235321
  0.0925464356231036  0.6507833110934794  0.7992458636029022
  0.2163864574050863  0.8466596913449393  0.8786102286979387
  0.1931932055178151  0.8984802360368352  0.2129814358969281
  0.0347010456796905  0.5564073423275238  0.2737983382787019
  0.0030983176335158  0.4035754210102739  0.4025879437141284
  0.2458383052040953  0.8003361797481290  0.5449706754671767
  0.2206434201192743  0.6538425937577854  0.6750209604995983
  0.0258163872556205  0.1514512098991434  0.8703369807964877
  0.1528107044798858  0.3516958120895085  0.9497277487697173
  0.1799492249622926  0.6979800877169775  0.0036969797504932
  0.2833251343158072  0.7526584068230203  0.2219290619620939
  0.0962043054425131  0.2536914162826709  0.4136314567645173
  0.2225906115659243  0.4530438896538124  0.4857647772461508
  0.3407890239572659  0.6465581422391043  0.5536238015253652
  0.3129190135442517  0.5055303542364676  0.6863073197705948
  0.1523750620381182  0.1487291254012630  0.7375799272479231
  0.5278887317267551  0.7454910689280916  0.9633920697533414
  0.2512345533452054  0.2034144568146500  0.9591875971444586
  0.2824261810930214  0.5445981025405117  0.0129118873908919
  0.1235235884624561  0.2018468825467984  0.0719925688138757
  0.5923339925745278  0.8483832373909541  0.5052630140737647
  0.1899420970100813  0.0985587061603087  0.4197985540047500
  0.3128906246255777  0.3006099940021728  0.4872088462934679
  0.5633517539073932  0.6958036319771398  0.6367851480508121
  0.5367511602048549  0.5540896866259494  0.7675313403741748
  0.6567163709627342  0.7498695274113222  0.8417318288427198
  0.3788380037027417  0.4051018080209003  0.0305913658155007
  0.5022861292466224  0.5993289083745277  0.1010527136046719
  0.2178192613987938  0.0477692123771175  0.0821929129635029
  0.3463275362060785  0.2549753842934858  0.1556516893983890
  0.5939548286967269  0.6456679914575475  0.3081437031324187
  0.7172984376922295  0.8482533725236370  0.3801407981982712
  0.4396793719680290  0.2988019190904651  0.3604376462743354
  0.5624334620646305  0.5004581404316509  0.4335578156378705
  0.6868943753982076  0.6950621135658290  0.5111064182573551
  0.4050051237443190  0.1504750774545521  0.4928338070704144
  0.5318340250271517  0.3555335595326892  0.5670739554729552
  0.7503849771947778  0.6007959153514896  0.8476284277527882
  0.4697198516921007  0.0416281177491921  0.8312104141792163
  0.5963456607261299  0.2534677056106054  0.9115294725799803
  0.7459831489174215  0.7971489517339594  0.0430854188322542
  0.8409633912368782  0.8512716017621985  0.2609037483444646
  0.8157166470465816  0.7008691185442149  0.3911642751340330
  0.7823403731497713  0.5534683995555129  0.5166265152183684
  0.7488680217725047  0.3998841425260783  0.6553694859985989
  0.8688544574822036  0.5971813024746773  0.7197036233273495
  0.5966082075210205  0.0479247218393346  0.7077851681308284
  0.8415827755160690  0.4496896872141353  0.8532139569590756
  0.8109348158593838  0.2986784969909986  0.9862627263620017
  0.8420428868652680  0.6495659375697642  0.0492305990283693
  0.8143013781853188  0.4990699571565979  0.1896928418825584
  0.9424150056813305  0.6991648196411815  0.2675783285746435
  0.7826093441169133  0.3500073760460542  0.3152347766666534
  0.9100651172075652  0.5526085491791128  0.3926108552062927
  0.7492469056622673  0.1949482035683771  0.4518102206282070
  0.9328390472277255  0.3017063013989945  0.8639115606834136
  0.7484955727567459  0.9994382972010406  0.2586979055607058
  0.8760525050887062  0.2056043850525342  0.3314936009406771
  0.8424324864157257  0.0509201180297666  0.4601624777989444
  0.9702816447514326  0.2463605025704338  0.5289738287317327
  0.8729472418735569  0.9998112261965366  0.1219613558698985
  0.1511520617598443  0.9446887526250443  0.5416440521939884
  0.1279294699582326  0.8014128564696341  0.6677650967035765
  0.0920208116275283  0.8474765699548532  0.0066821072743635
  0.1641402202683045  0.7544232943362091  0.3443096194827446
  0.1286820946818356  0.6017775376565628  0.4723138849059351
  0.4316756375080303  0.8972915907608989  0.9539438403364884
  0.2580597742638583  0.6080225642072440  0.3552025619490966
  0.0607216586873390  0.0972964112636050  0.5400195549479465
  0.9933956387567199  0.0009656464680813  0.9961513289069156
  0.2570201326023123  0.3990867707715531  0.1478733700265351
  0.3515936586436215  0.4569246870059743  0.3593948910684442
  0.6889262264641417  0.9022532109123513  0.7192015352541098
  0.2729834288992841  0.1407206736068490  0.6143933324983299
  0.7801084901117836  0.9492819039613518  0.9152342166492416
  0.5078171429417604  0.4054945951169481  0.9029838304668281
  0.6261006518005525  0.7982981562542193  0.1826474255002067
  0.3174833545240809  0.0980550954746340  0.2976691544897276
  0.9006776656171753  0.9516693940672865  0.7970837723378768
  0.9416769676303627  0.8955826997883789  0.4654066473023921
  0.4988046841707201  0.0033071266059649  0.5041641735241407
  0.6289402564568136  0.1945234651307668  0.5775201757807028
  0.6580095252443744  0.1538783269885255  0.2533612991492091
  0.9650202054596552  0.4580826274364976  0.7327546185084260
  0.9366299027153072  0.1009545245373909  0.6629868401887966
  0.0666357366422309  0.7039896807770085  0.1431210973399397
  0.2772473251341775  0.9544076921536819  0.4183092970696045
  0.3354549337293334  0.8484127807644660  0.7548926592909632
  0.1895968196200659  0.5097256258202512  0.8090776520564684
  0.3069599620332958  0.6996489936647223  0.8827344527060660
  0.0254681668214102  0.3427335567351901  0.0644103456521479
  0.4013019676383172  0.9447060478829429  0.3055988240665162
  0.9976124760180151  0.1989415057170416  0.1977860754832338
  0.3782599679573573  0.8036338070754570  0.4188938272448617
  0.1857242676730338  0.2962599912614985  0.6084259525021721
  0.5663216709205794  0.8981050270369135  0.8394928026684970
  0.6239999055623019  0.5984674603067375  0.9709166558811112
  0.3436229060296491  0.0380661346185528  0.9562630451195567
  0.4687270887917904  0.4480216870422244  0.2294865991131642
  0.4686439828937263  0.2638321539235200  0.0326391920981025
  0.5669925647327301  0.3047738966844471  0.2343225210114494
  0.6945003132961578  0.4989472316114162  0.3110662998415653
  0.5308967634320656  0.1384402389701068  0.3780296419123710
  0.7233378852428672  0.2464707755805469  0.7835772102856596
  0.6850052881828608  0.3064634835259871  0.1133348722816112
  0.6262584275775439  0.0006791367974415  0.3846440831958289
  0.7158404339480083  0.0518085343524948  0.5847394887058098
  0.9065810805102488  0.1484495181637550  0.9922110084434345
  0.9109321118877844  0.3527335426152549  0.2006683777140257
  0.9952512651850834  0.7991719004511068  0.7917937893365589
  0.0557280056948923  0.3030541497055390  0.7349788281171574
  0.1631346008726720  0.5534614091047221  0.1395831754158795
  0.1282033762729242  0.4041201735762135  0.2788215191875120
  0.4667096212102702  0.8475384608410050  0.6313275622603624
  0.2812764758507734  0.3544900461754398  0.8239116427699529
  0.1255884629302166  0.0056016971506792  0.8752306690517743
  0.4020526043411307  0.7443137794092793  0.0909358614474459
  0.5295995150752024  0.9493418690468453  0.1749616050658764
  0.0957123934865225  0.0479515764601612  0.2056276871220163
  0.2245928678994401  0.2519647970867644  0.2840578590427055
  0.4072064576376431  0.3541244419403353  0.6903494039927671
  0.3724012378507723  0.1922066514256869  0.8296863824648165
  0.6530903092574193  0.9448330133145392  0.0418244817711272
  0.8124407359726881  0.8978612203675090  0.5886907384264121
  0.5040454156308026  0.1976436938483299  0.6981291673027087
  0.7227040866826359  0.6530734531825478  0.1811686888746418
  0.4338504263601726  0.1028416332743342  0.1650397393550596
  0.6537767098313766  0.3464853244204619  0.4445762771323509
  0.9633683509598835  0.8449028370833982  0.1316601682060140
  0.8800800306073089  0.4007458165036723  0.5278892083462726
  0.9368344274211706  0.5008246704993564  0.0604503974807848
  0.7791814410717222  0.1530110517382094  0.1228166835312990
  0.9664719456625986  0.0509610651374467  0.3355130787440988
 
  0.00000000E+00  0.00000000E+00  0.00000000E+00
  0.00000000E+00  0.00000000E+00  0.00000000E+00
  0.00000000E+00  0.00000000E+00  0.00000000E+00
  0.00000000E+00  0.00000000E+00  0.00000000E+00
  0.00000000E+00  0.00000000E+00  0.00000000E+00
  0.00000000E+00  0.00000000E+00  0.00000000E+00
  0.00000000E+00  0.00000000E+00  0.00000000E+00
  0.00000000E+00  0.00000000E+00  0.00000000E+00
  0.00000000E+00  0.00000000E+00  0.00000000E+00
  0.00000000E+00  0.00000000E+00  0.00000000E+00
  0.00000000E+00  0.00000000E+00  0.00000000E+00
  0.00000000E+00  0.00000000E+00  0.00000000E+00
  0.00000000E+00  0.00000000E+00  0.00000000E+00
  0.00000000E+00  0.00000000E+00  0.00000000E+00
  0.00000000E+00  0.00000000E+00  0.00000000E+00
  0.00000000E+00  0.00000000E+00  0.00000000E+00
  0.00000000E+00  0.00000000E+00  0.00000000E+00
  0.00000000E+00  0.00000000E+00  0.00000000E+00
  0.00000000E+00  0.00000000E+00  0.00000000E+00
  0.00000000E+00  0.00000000E+00  0.00000000E+00
  0.00000000E+00  0.00000000E+00  0.00000000E+00
  0.00000000E+00  0.00000000E+00  0.00000000E+00
  0.00000000E+00  0.00000000E+00  0.00000000E+00
  0.00000000E+00  0.00000000E+00  0.00000000E+00
  0.00000000E+00  0.00000000E+00  0.00000000E+00
  0.00000000E+00  0.00000000E+00  0.00000000E+00
  0.00000000E+00  0.00000000E+00  0.00000000E+00
  0.00000000E+00  0.00000000E+00  0.00000000E+00
  0.00000000E+00  0.00000000E+00  0.00000000E+00
  0.00000000E+00  0.00000000E+00  0.00000000E+00
  0.00000000E+00  0.00000000E+00  0.00000000E+00
  0.00000000E+00  0.00000000E+00  0.00000000E+00
  0.00000000E+00  0.00000000E+00  0.00000000E+00
  0.00000000E+00  0.00000000E+00  0.00000000E+00
  0.00000000E+00  0.00000000E+00  0.00000000E+00
  0.00000000E+00  0.00000000E+00  0.00000000E+00
  0.00000000E+00  0.00000000E+00  0.00000000E+00
  0.00000000E+00  0.00000000E+00  0.00000000E+00
  0.00000000E+00  0.00000000E+00  0.00000000E+00
  0.00000000E+00  0.00000000E+00  0.00000000E+00
  0.00000000E+00  0.00000000E+00  0.00000000E+00
  0.00000000E+00  0.00000000E+00  0.00000000E+00
  0.00000000E+00  0.00000000E+00  0.00000000E+00
  0.00000000E+00  0.00000000E+00  0.00000000E+00
  0.00000000E+00  0.00000000E+00  0.00000000E+00
  0.00000000E+00  0.00000000E+00  0.00000000E+00
  0.00000000E+00  0.00000000E+00  0.00000000E+00
  0.00000000E+00  0.00000000E+00  0.00000000E+00
  0.00000000E+00  0.00000000E+00  0.00000000E+00
  0.00000000E+00  0.00000000E+00  0.00000000E+00
  0.00000000E+00  0.00000000E+00  0.00000000E+00
  0.00000000E+00  0.00000000E+00  0.00000000E+00
  0.00000000E+00  0.00000000E+00  0.00000000E+00
  0.00000000E+00  0.00000000E+00  0.00000000E+00
  0.00000000E+00  0.00000000E+00  0.00000000E+00
  0.00000000E+00  0.00000000E+00  0.00000000E+00
  0.00000000E+00  0.00000000E+00  0.00000000E+00
  0.00000000E+00  0.00000000E+00  0.00000000E+00
  0.00000000E+00  0.00000000E+00  0.00000000E+00
  0.00000000E+00  0.00000000E+00  0.00000000E+00
  0.00000000E+00  0.00000000E+00  0.00000000E+00
  0.00000000E+00  0.00000000E+00  0.00000000E+00
  0.00000000E+00  0.00000000E+00  0.00000000E+00
  0.00000000E+00  0.00000000E+00  0.00000000E+00
  0.00000000E+00  0.00000000E+00  0.00000000E+00
  0.00000000E+00  0.00000000E+00  0.00000000E+00
  0.00000000E+00  0.00000000E+00  0.00000000E+00
  0.00000000E+00  0.00000000E+00  0.00000000E+00
  0.00000000E+00  0.00000000E+00  0.00000000E+00
  0.00000000E+00  0.00000000E+00  0.00000000E+00
  0.00000000E+00  0.00000000E+00  0.00000000E+00
  0.00000000E+00  0.00000000E+00  0.00000000E+00
  0.00000000E+00  0.00000000E+00  0.00000000E+00
  0.00000000E+00  0.00000000E+00  0.00000000E+00
  0.00000000E+00  0.00000000E+00  0.00000000E+00
  0.00000000E+00  0.00000000E+00  0.00000000E+00
  0.00000000E+00  0.00000000E+00  0.00000000E+00
  0.00000000E+00  0.00000000E+00  0.00000000E+00
  0.00000000E+00  0.00000000E+00  0.00000000E+00
  0.00000000E+00  0.00000000E+00  0.00000000E+00
  0.00000000E+00  0.00000000E+00  0.00000000E+00
  0.00000000E+00  0.00000000E+00  0.00000000E+00
  0.00000000E+00  0.00000000E+00  0.00000000E+00
  0.00000000E+00  0.00000000E+00  0.00000000E+00
  0.00000000E+00  0.00000000E+00  0.00000000E+00
  0.00000000E+00  0.00000000E+00  0.00000000E+00
  0.00000000E+00  0.00000000E+00  0.00000000E+00
  0.00000000E+00  0.00000000E+00  0.00000000E+00
  0.00000000E+00  0.00000000E+00  0.00000000E+00
  0.00000000E+00  0.00000000E+00  0.00000000E+00
  0.00000000E+00  0.00000000E+00  0.00000000E+00
  0.00000000E+00  0.00000000E+00  0.00000000E+00
  0.00000000E+00  0.00000000E+00  0.00000000E+00
  0.00000000E+00  0.00000000E+00  0.00000000E+00
  0.00000000E+00  0.00000000E+00  0.00000000E+00
  0.00000000E+00  0.00000000E+00  0.00000000E+00
  0.00000000E+00  0.00000000E+00  0.00000000E+00
  0.00000000E+00  0.00000000E+00  0.00000000E+00
  0.00000000E+00  0.00000000E+00  0.00000000E+00
  0.00000000E+00  0.00000000E+00  0.00000000E+00
  0.00000000E+00  0.00000000E+00  0.00000000E+00
  0.00000000E+00  0.00000000E+00  0.00000000E+00
  0.00000000E+00  0.00000000E+00  0.00000000E+00
  0.00000000E+00  0.00000000E+00  0.00000000E+00
  0.00000000E+00  0.00000000E+00  0.00000000E+00
  0.00000000E+00  0.00000000E+00  0.00000000E+00
  0.00000000E+00  0.00000000E+00  0.00000000E+00
  0.00000000E+00  0.00000000E+00  0.00000000E+00
  0.00000000E+00  0.00000000E+00  0.00000000E+00
  0.00000000E+00  0.00000000E+00  0.00000000E+00
  0.00000000E+00  0.00000000E+00  0.00000000E+00
  0.00000000E+00  0.00000000E+00  0.00000000E+00
  0.00000000E+00  0.00000000E+00  0.00000000E+00
  0.00000000E+00  0.00000000E+00  0.00000000E+00
  0.00000000E+00  0.00000000E+00  0.00000000E+00
  0.00000000E+00  0.00000000E+00  0.00000000E+00
  0.00000000E+00  0.00000000E+00  0.00000000E+00
  0.00000000E+00  0.00000000E+00  0.00000000E+00
  0.00000000E+00  0.00000000E+00  0.00000000E+00
  0.00000000E+00  0.00000000E+00  0.00000000E+00
  0.00000000E+00  0.00000000E+00  0.00000000E+00
  0.00000000E+00  0.00000000E+00  0.00000000E+00
  0.00000000E+00  0.00000000E+00  0.00000000E+00
  0.00000000E+00  0.00000000E+00  0.00000000E+00
  0.00000000E+00  0.00000000E+00  0.00000000E+00
  0.00000000E+00  0.00000000E+00  0.00000000E+00
  0.00000000E+00  0.00000000E+00  0.00000000E+00
  0.00000000E+00  0.00000000E+00  0.00000000E+00
  0.00000000E+00  0.00000000E+00  0.00000000E+00
  0.00000000E+00  0.00000000E+00  0.00000000E+00
  0.00000000E+00  0.00000000E+00  0.00000000E+00
  0.00000000E+00  0.00000000E+00  0.00000000E+00
  0.00000000E+00  0.00000000E+00  0.00000000E+00
  0.00000000E+00  0.00000000E+00  0.00000000E+00
  0.00000000E+00  0.00000000E+00  0.00000000E+00
  0.00000000E+00  0.00000000E+00  0.00000000E+00
  0.00000000E+00  0.00000000E+00  0.00000000E+00
  0.00000000E+00  0.00000000E+00  0.00000000E+00
  0.00000000E+00  0.00000000E+00  0.00000000E+00
  0.00000000E+00  0.00000000E+00  0.00000000E+00
  0.00000000E+00  0.00000000E+00  0.00000000E+00
  0.00000000E+00  0.00000000E+00  0.00000000E+00
  0.00000000E+00  0.00000000E+00  0.00000000E+00
  0.00000000E+00  0.00000000E+00  0.00000000E+00
  0.00000000E+00  0.00000000E+00  0.00000000E+00
  0.00000000E+00  0.00000000E+00  0.00000000E+00
  0.00000000E+00  0.00000000E+00  0.00000000E+00
  0.00000000E+00  0.00000000E+00  0.00000000E+00
  0.00000000E+00  0.00000000E+00  0.00000000E+00
  0.00000000E+00  0.00000000E+00  0.00000000E+00
  0.00000000E+00  0.00000000E+00  0.00000000E+00
  0.00000000E+00  0.00000000E+00  0.00000000E+00
  0.00000000E+00  0.00000000E+00  0.00000000E+00
  0.00000000E+00  0.00000000E+00  0.00000000E+00
  0.00000000E+00  0.00000000E+00  0.00000000E+00
  0.00000000E+00  0.00000000E+00  0.00000000E+00
  0.00000000E+00  0.00000000E+00  0.00000000E+00
  0.00000000E+00  0.00000000E+00  0.00000000E+00
  0.00000000E+00  0.00000000E+00  0.00000000E+00
  0.00000000E+00  0.00000000E+00  0.00000000E+00
