FeNiCoCrPd_SQSfcc24_Fe64                
   3.80000000000000     
     2.3854717554924765   -1.4460385288592477    1.9248017486403444
     1.4283072333653029    2.4098265986471463   -1.9212389790638711
    -1.4281546943207060    2.4085339722282537    1.9197293601805550
   Fe   Ni   Co   Cr   Pd
    64    24    24    24    24
Direct
  0.0595847451731486  0.8996933041212465  0.3392656463864960
  0.0352238236222699  0.7480657457977707  0.4667844626759216
  0.9967635447085560  0.5952463253250710  0.5948906588155931
  0.1015035336282793  0.6524547712186934  0.8039291123032708
  0.2136557492620474  0.8497398927375859  0.8865944464321852
  0.1824374305955972  0.8993999676911485  0.2182038620104805
  0.0400872836944126  0.5515055536667275  0.2705913829809573
  0.9966107534724976  0.3962231938989130  0.3959054216343461
  0.2462566510985447  0.7999131506293563  0.5454119764323558
  0.2128976974053925  0.6485748967208294  0.6789604839916388
  0.0341545861613356  0.1476925031679024  0.8689149302344175
  0.1552557998322188  0.3394161890319937  0.9434165979318512
  0.1924618483840937  0.6993974956675184  0.0195055572326293
  0.2751459801283438  0.7425612929065797  0.2267024939025647
  0.0920696728655845  0.2477069669936159  0.4024054602021283
  0.2125814720723268  0.4488875311304832  0.4745899209032837
  0.3286827539439847  0.6490286064727653  0.5515313618247637
  0.3078651401390386  0.4904093252375532  0.6906024045664125
  0.1551692573618373  0.1543748170421913  0.7404217788227189
  0.5313741018870504  0.7588664360943838  0.9699789189187843
  0.2502595207022773  0.1931026633674477  0.9495793646879168
  0.2805272797660894  0.5491914155310335  0.0214245456783653
  0.1254391197537646  0.1944141388564224  0.0815121860233644
  0.5988637988900678  0.8584613169808881  0.5082277366699618
  0.1841318013936446  0.0968933296611056  0.4077086729902882
  0.3060029490182826  0.2911982411599807  0.4861003364715765
  0.5646665716433296  0.7076732532941631  0.6378465893113011
  0.5345561571589226  0.5500383784525268  0.7714736761873714
  0.6592709639769999  0.7579691908008243  0.8459370705469794
  0.3653296561425770  0.3976672459458366  0.0271133264521219
  0.5117747304913712  0.6142768686358606  0.1070634335382147
  0.2172529706872788  0.0470023084944269  0.0843360032887807
  0.3392425990713306  0.2472939758788134  0.1557382528824355
  0.6017409295012944  0.6473814457529257  0.3072635819393759
  0.7255168463421833  0.8544395888130637  0.3786210443858689
  0.4317068959684325  0.2925362904407918  0.3610072843691344
  0.5552872621161999  0.4881235626953926  0.4260082875007336
  0.6922233726170099  0.7081998507204910  0.5029356918756877
  0.4055594288526731  0.1436424991204553  0.4914366381471356
  0.5253605257252739  0.3410074376117159  0.5634995190401769
  0.7482824377580610  0.6046777347027090  0.8477525380944774
  0.4676099678676215  0.0535152960528416  0.8359116887336587
  0.5880335975323286  0.2510166828546799  0.9040737611505145
  0.7492649996929118  0.8071210670829513  0.0550741234226150
  0.8448552520532686  0.8521285005622161  0.2546471733708682
  0.8195914084083249  0.6993738708626056  0.3814272254767119
  0.7800257059588975  0.5461154515737776  0.5027451875970080
  0.7498507591586961  0.3994644990943522  0.6411259578072634
  0.8786511084063239  0.5990786097778844  0.7219175614424294
  0.5917560838939021  0.0493236500754506  0.6994122530302012
  0.8444520090513985  0.4486487352946886  0.8539062160663242
  0.8164218224444442  0.3040139495570363  0.9935996479316327
  0.8487123099131849  0.6552165348841387  0.0677426058651372
  0.8171754365199616  0.5031592840045743  0.1945370469792984
  0.9445065863010211  0.7040763854167668  0.2614119586462642
  0.7848471014467138  0.3481067361098508  0.3210854547554660
  0.9114116868185773  0.5484756025104074  0.3904985238778303
  0.7399487051755032  0.1979658531573283  0.4441180839506876
  0.9345462348379229  0.3010712609470066  0.8584612061716544
  0.7512443866351993  0.0012952046052221  0.2442486721779105
  0.8746673419354856  0.1966074217746661  0.3212830474212441
  0.8466224934843751  0.0494728127569101  0.4555784471290057
  0.9690637493866904  0.2436515391411409  0.5273239932383298
  0.8822764841604823  0.0075969353548217  0.1225146008773214
  0.0084225135157657  0.8027259396321194  0.8013098674434115
  0.0625189770999336  0.2970555400401888  0.7405876815241499
  0.1528474256362705  0.5475839792278898  0.1467378839815387
  0.1272031447458049  0.3979355474536124  0.2769308991092378
  0.4703456017341771  0.8494040221917772  0.6294311273078134
  0.2775489997244577  0.3424578394996037  0.8197535395247680
  0.1228868920052972  0.0013199508255900  0.8804213132554601
  0.4097795522154538  0.7490469911554217  0.0914157276990046
  0.5378829742132354  0.9527571215156870  0.1703386776437231
  0.0930651469866613  0.0492274116732699  0.2091549773355777
  0.2166919621160085  0.2470581605634427  0.2808373536109840
  0.3994158487426028  0.3432129734329180  0.6956735540579841
  0.3746840351452528  0.2008256407306780  0.8247795244144696
  0.6593400359016448  0.9493839214710578  0.0460342775854651
  0.8099769090183129  0.9073486356192527  0.5826238791564191
  0.4967169775667111  0.1956433428754195  0.6979727701702008
  0.7249451675228221  0.6568997352999636  0.1837259209897735
  0.4337293744213296  0.1035012775977955  0.1655978866946850
  0.6548976718968392  0.3471933090961135  0.4431532886116459
  0.9727546518530849  0.8559762784127189  0.1367840805801854
  0.8700906886016205  0.3998773969627525  0.5167978929995439
  0.9402747335864112  0.5020046206312265  0.0702604541443734
  0.7903063007091904  0.1563904630075780  0.1239376113472433
  0.9680440509832414  0.0484881633732363  0.3304856168185347
  0.1499920089670666  0.9468368663634366  0.5372087890514153
  0.1290513336360197  0.7962996921843626  0.6749315091584297
  0.0994888822369725  0.8574941895438513  0.0112928187481685
  0.1599846977743742  0.7500747821762932  0.3477575868776244
  0.1226486852093332  0.5992607877096077  0.4711392276610302
  0.4369583272529760  0.8998937658257655  0.9629724207475215
  0.2437947611998437  0.5941869247824012  0.3516385584680236
  0.0661588480961246  0.0995569973113658  0.5307175881032170
  0.0060119628251795  0.0075789475251516  0.0019084942487021
  0.2411308141953203  0.3900529572390546  0.1480566784826685
  0.3362083946366805  0.4385095465237301  0.3528120919787294
  0.6834050380405358  0.9004775336077209  0.7125393683256241
  0.2799994272219768  0.1494507999358247  0.6121177684223713
  0.7835235111361933  0.9513626416839643  0.9220438648217478
  0.4907378183159493  0.3915118026543218  0.8958455848352868
  0.6306889406740367  0.8044932883408600  0.1754501143842437
  0.3082385665569781  0.1035389656445694  0.2858696158717528
  0.9101969585806334  0.9562631297936931  0.7980736925077655
  0.9380213404708946  0.9044703311832397  0.4575409427848285
  0.5044422090788694  0.0013054599765453  0.5023410517011687
  0.6208387881710971  0.1993625752889447  0.5717888035590196
  0.6637967270267923  0.1497805534615537  0.2500808333788334
  0.9658572399590639  0.4557262627516199  0.7289911751861644
  0.9412269289644852  0.1022689917252109  0.6586697740315948
  0.0666703674272033  0.7038484384247757  0.1423241553700569
  0.2751836837203600  0.9524497036702052  0.4141348571955934
  0.3484782402348371  0.8505731768756325  0.7660892106538002
  0.1835972403767600  0.4916699997495556  0.8112037378158011
  0.3132780088098154  0.7081175167970218  0.8941401294817567
  0.0266713055450822  0.3461995384905772  0.0801271261508039
  0.4136433218317055  0.9606751445723964  0.3018809388425591
  0.0021112917162478  0.1965397954572287  0.2061776451573434
  0.3741280062670710  0.7995239081828419  0.4289426973059824
  0.1882123633144606  0.2968874666453825  0.6105661749583069
  0.5632061436692846  0.9010978804560889  0.8378520802390146
  0.6328308056457044  0.6138316993001659  0.9743883505628255
  0.3388529176510682  0.0442014658775843  0.9575535654228373
  0.4583620597151623  0.4379799513049207  0.2292827449054084
  0.4571377369995435  0.2559556531359199  0.0311830874385105
  0.5653474238746530  0.2952410030015117  0.2379397625772898
  0.6927975893808186  0.4968636519334427  0.3117853735678720
  0.5272778634992441  0.1498298080409882  0.3730544858926940
  0.7175236537249711  0.2512570134791058  0.7802842705576326
  0.6911195171342801  0.3031185496635747  0.1217143233625148
  0.6315307321114072  0.0007267850636142  0.3688346300056276
  0.7143554632650315  0.0496275211364521  0.5791725599021067
  0.9166215547216705  0.1627189353892874  0.9923740387253582
  0.9130890939372724  0.3550995758708094  0.2010706894920960
  0.0269718786711349  0.9526799049900643  0.6668762546600122
  0.0638441414037178  0.4956090761320108  0.9406354074249754
  0.0888357768911483  0.4453242973745591  0.6035902605536976
  0.3168808219311401  0.8986947259319618  0.0961704480094786
  0.4356269690126945  0.6984789934811129  0.7592081373300098
  0.4067029579934406  0.5477497155111052  0.8995324993871067
  0.3699404804839844  0.5907657053502656  0.2222679879711645
  0.5015093314531469  0.8026403042223219  0.2979438836387269
  0.4692846749619537  0.6482966416813466  0.4352313613741207
  0.4295364444869429  0.4922798320899939  0.5638749919855356
  0.2485819758401026  0.0001737777851260  0.7528682107903407
  0.6581175398934688  0.5521125210495172  0.6323119030462211
  0.7837885325771246  0.7583310414239329  0.7180100275406452
  0.3739434671990064  0.9964836449734783  0.6225552081411423
  0.6202364723976268  0.3972460579491561  0.7691398837963659
  0.8792023281861081  0.8070559981347415  0.9330968293553051
  0.7235599513335966  0.4543356974109302  0.9827244171784387
  0.5883665145591667  0.4543580224977877  0.1044510946057697
  0.9075133890813590  0.7472922783690975  0.5882204753305592
  0.9715401566234668  0.6524044820107631  0.9330698074136353
  0.6884842958566334  0.1022357583541262  0.9160359607234891
  0.5603245531729560  0.1048178047207488  0.0446712323245822
  0.8456475361301028  0.2540806189118984  0.6491865246932566
  0.8144487050200370  0.0985982756818403  0.7858793023959467
 
  0.00000000E+00  0.00000000E+00  0.00000000E+00
  0.00000000E+00  0.00000000E+00  0.00000000E+00
  0.00000000E+00  0.00000000E+00  0.00000000E+00
  0.00000000E+00  0.00000000E+00  0.00000000E+00
  0.00000000E+00  0.00000000E+00  0.00000000E+00
  0.00000000E+00  0.00000000E+00  0.00000000E+00
  0.00000000E+00  0.00000000E+00  0.00000000E+00
  0.00000000E+00  0.00000000E+00  0.00000000E+00
  0.00000000E+00  0.00000000E+00  0.00000000E+00
  0.00000000E+00  0.00000000E+00  0.00000000E+00
  0.00000000E+00  0.00000000E+00  0.00000000E+00
  0.00000000E+00  0.00000000E+00  0.00000000E+00
  0.00000000E+00  0.00000000E+00  0.00000000E+00
  0.00000000E+00  0.00000000E+00  0.00000000E+00
  0.00000000E+00  0.00000000E+00  0.00000000E+00
  0.00000000E+00  0.00000000E+00  0.00000000E+00
  0.00000000E+00  0.00000000E+00  0.00000000E+00
  0.00000000E+00  0.00000000E+00  0.00000000E+00
  0.00000000E+00  0.00000000E+00  0.00000000E+00
  0.00000000E+00  0.00000000E+00  0.00000000E+00
  0.00000000E+00  0.00000000E+00  0.00000000E+00
  0.00000000E+00  0.00000000E+00  0.00000000E+00
  0.00000000E+00  0.00000000E+00  0.00000000E+00
  0.00000000E+00  0.00000000E+00  0.00000000E+00
  0.00000000E+00  0.00000000E+00  0.00000000E+00
  0.00000000E+00  0.00000000E+00  0.00000000E+00
  0.00000000E+00  0.00000000E+00  0.00000000E+00
  0.00000000E+00  0.00000000E+00  0.00000000E+00
  0.00000000E+00  0.00000000E+00  0.00000000E+00
  0.00000000E+00  0.00000000E+00  0.00000000E+00
  0.00000000E+00  0.00000000E+00  0.00000000E+00
  0.00000000E+00  0.00000000E+00  0.00000000E+00
  0.00000000E+00  0.00000000E+00  0.00000000E+00
  0.00000000E+00  0.00000000E+00  0.00000000E+00
  0.00000000E+00  0.00000000E+00  0.00000000E+00
  0.00000000E+00  0.00000000E+00  0.00000000E+00
  0.00000000E+00  0.00000000E+00  0.00000000E+00
  0.00000000E+00  0.00000000E+00  0.00000000E+00
  0.00000000E+00  0.00000000E+00  0.00000000E+00
  0.00000000E+00  0.00000000E+00  0.00000000E+00
  0.00000000E+00  0.00000000E+00  0.00000000E+00
  0.00000000E+00  0.00000000E+00  0.00000000E+00
  0.00000000E+00  0.00000000E+00  0.00000000E+00
  0.00000000E+00  0.00000000E+00  0.00000000E+00
  0.00000000E+00  0.00000000E+00  0.00000000E+00
  0.00000000E+00  0.00000000E+00  0.00000000E+00
  0.00000000E+00  0.00000000E+00  0.00000000E+00
  0.00000000E+00  0.00000000E+00  0.00000000E+00
  0.00000000E+00  0.00000000E+00  0.00000000E+00
  0.00000000E+00  0.00000000E+00  0.00000000E+00
  0.00000000E+00  0.00000000E+00  0.00000000E+00
  0.00000000E+00  0.00000000E+00  0.00000000E+00
  0.00000000E+00  0.00000000E+00  0.00000000E+00
  0.00000000E+00  0.00000000E+00  0.00000000E+00
  0.00000000E+00  0.00000000E+00  0.00000000E+00
  0.00000000E+00  0.00000000E+00  0.00000000E+00
  0.00000000E+00  0.00000000E+00  0.00000000E+00
  0.00000000E+00  0.00000000E+00  0.00000000E+00
  0.00000000E+00  0.00000000E+00  0.00000000E+00
  0.00000000E+00  0.00000000E+00  0.00000000E+00
  0.00000000E+00  0.00000000E+00  0.00000000E+00
  0.00000000E+00  0.00000000E+00  0.00000000E+00
  0.00000000E+00  0.00000000E+00  0.00000000E+00
  0.00000000E+00  0.00000000E+00  0.00000000E+00
  0.00000000E+00  0.00000000E+00  0.00000000E+00
  0.00000000E+00  0.00000000E+00  0.00000000E+00
  0.00000000E+00  0.00000000E+00  0.00000000E+00
  0.00000000E+00  0.00000000E+00  0.00000000E+00
  0.00000000E+00  0.00000000E+00  0.00000000E+00
  0.00000000E+00  0.00000000E+00  0.00000000E+00
  0.00000000E+00  0.00000000E+00  0.00000000E+00
  0.00000000E+00  0.00000000E+00  0.00000000E+00
  0.00000000E+00  0.00000000E+00  0.00000000E+00
  0.00000000E+00  0.00000000E+00  0.00000000E+00
  0.00000000E+00  0.00000000E+00  0.00000000E+00
  0.00000000E+00  0.00000000E+00  0.00000000E+00
  0.00000000E+00  0.00000000E+00  0.00000000E+00
  0.00000000E+00  0.00000000E+00  0.00000000E+00
  0.00000000E+00  0.00000000E+00  0.00000000E+00
  0.00000000E+00  0.00000000E+00  0.00000000E+00
  0.00000000E+00  0.00000000E+00  0.00000000E+00
  0.00000000E+00  0.00000000E+00  0.00000000E+00
  0.00000000E+00  0.00000000E+00  0.00000000E+00
  0.00000000E+00  0.00000000E+00  0.00000000E+00
  0.00000000E+00  0.00000000E+00  0.00000000E+00
  0.00000000E+00  0.00000000E+00  0.00000000E+00
  0.00000000E+00  0.00000000E+00  0.00000000E+00
  0.00000000E+00  0.00000000E+00  0.00000000E+00
  0.00000000E+00  0.00000000E+00  0.00000000E+00
  0.00000000E+00  0.00000000E+00  0.00000000E+00
  0.00000000E+00  0.00000000E+00  0.00000000E+00
  0.00000000E+00  0.00000000E+00  0.00000000E+00
  0.00000000E+00  0.00000000E+00  0.00000000E+00
  0.00000000E+00  0.00000000E+00  0.00000000E+00
  0.00000000E+00  0.00000000E+00  0.00000000E+00
  0.00000000E+00  0.00000000E+00  0.00000000E+00
  0.00000000E+00  0.00000000E+00  0.00000000E+00
  0.00000000E+00  0.00000000E+00  0.00000000E+00
  0.00000000E+00  0.00000000E+00  0.00000000E+00
  0.00000000E+00  0.00000000E+00  0.00000000E+00
  0.00000000E+00  0.00000000E+00  0.00000000E+00
  0.00000000E+00  0.00000000E+00  0.00000000E+00
  0.00000000E+00  0.00000000E+00  0.00000000E+00
  0.00000000E+00  0.00000000E+00  0.00000000E+00
  0.00000000E+00  0.00000000E+00  0.00000000E+00
  0.00000000E+00  0.00000000E+00  0.00000000E+00
  0.00000000E+00  0.00000000E+00  0.00000000E+00
  0.00000000E+00  0.00000000E+00  0.00000000E+00
  0.00000000E+00  0.00000000E+00  0.00000000E+00
  0.00000000E+00  0.00000000E+00  0.00000000E+00
  0.00000000E+00  0.00000000E+00  0.00000000E+00
  0.00000000E+00  0.00000000E+00  0.00000000E+00
  0.00000000E+00  0.00000000E+00  0.00000000E+00
  0.00000000E+00  0.00000000E+00  0.00000000E+00
  0.00000000E+00  0.00000000E+00  0.00000000E+00
  0.00000000E+00  0.00000000E+00  0.00000000E+00
  0.00000000E+00  0.00000000E+00  0.00000000E+00
  0.00000000E+00  0.00000000E+00  0.00000000E+00
  0.00000000E+00  0.00000000E+00  0.00000000E+00
  0.00000000E+00  0.00000000E+00  0.00000000E+00
  0.00000000E+00  0.00000000E+00  0.00000000E+00
  0.00000000E+00  0.00000000E+00  0.00000000E+00
  0.00000000E+00  0.00000000E+00  0.00000000E+00
  0.00000000E+00  0.00000000E+00  0.00000000E+00
  0.00000000E+00  0.00000000E+00  0.00000000E+00
  0.00000000E+00  0.00000000E+00  0.00000000E+00
  0.00000000E+00  0.00000000E+00  0.00000000E+00
  0.00000000E+00  0.00000000E+00  0.00000000E+00
  0.00000000E+00  0.00000000E+00  0.00000000E+00
  0.00000000E+00  0.00000000E+00  0.00000000E+00
  0.00000000E+00  0.00000000E+00  0.00000000E+00
  0.00000000E+00  0.00000000E+00  0.00000000E+00
  0.00000000E+00  0.00000000E+00  0.00000000E+00
  0.00000000E+00  0.00000000E+00  0.00000000E+00
  0.00000000E+00  0.00000000E+00  0.00000000E+00
  0.00000000E+00  0.00000000E+00  0.00000000E+00
  0.00000000E+00  0.00000000E+00  0.00000000E+00
  0.00000000E+00  0.00000000E+00  0.00000000E+00
  0.00000000E+00  0.00000000E+00  0.00000000E+00
  0.00000000E+00  0.00000000E+00  0.00000000E+00
  0.00000000E+00  0.00000000E+00  0.00000000E+00
  0.00000000E+00  0.00000000E+00  0.00000000E+00
  0.00000000E+00  0.00000000E+00  0.00000000E+00
  0.00000000E+00  0.00000000E+00  0.00000000E+00
  0.00000000E+00  0.00000000E+00  0.00000000E+00
  0.00000000E+00  0.00000000E+00  0.00000000E+00
  0.00000000E+00  0.00000000E+00  0.00000000E+00
  0.00000000E+00  0.00000000E+00  0.00000000E+00
  0.00000000E+00  0.00000000E+00  0.00000000E+00
  0.00000000E+00  0.00000000E+00  0.00000000E+00
  0.00000000E+00  0.00000000E+00  0.00000000E+00
  0.00000000E+00  0.00000000E+00  0.00000000E+00
  0.00000000E+00  0.00000000E+00  0.00000000E+00
  0.00000000E+00  0.00000000E+00  0.00000000E+00
  0.00000000E+00  0.00000000E+00  0.00000000E+00
  0.00000000E+00  0.00000000E+00  0.00000000E+00
  0.00000000E+00  0.00000000E+00  0.00000000E+00
  0.00000000E+00  0.00000000E+00  0.00000000E+00
  0.00000000E+00  0.00000000E+00  0.00000000E+00
  0.00000000E+00  0.00000000E+00  0.00000000E+00
