FeNiCoCrMn_SQSbcc160_N01p24             
   2.80000000000000     
     2.5445974887411156    0.5067981996132442    3.5661501062832386
     2.5491692108234600   -3.4963413340804559   -0.5200100811121714
     2.5516837262337817    2.4915552075239997   -2.5461755332683396
   Fe   Ni   Co   Cr   Mn
    32    32    32    32    32
Direct
 -0.0020812247776280 -0.0034916259667402 -0.0032074066515913
  0.1225621381088504  0.1250613683753826  0.1465429788010305
  0.4349918215821197  0.1822539369875712  0.1666487974765794
  0.9334702014087408  0.1922247989058115  0.2631083792528226
  0.1296446793608303  0.6256745760926630  0.0715305475005821
  0.6939185013612658  0.4334177905120030  0.2865137537613947
  0.6269803324331120  0.6194768219787928  0.1536145726123384
  0.7598137222197182  0.7392282461228030  0.1031713159457660
  0.1217308413024676  0.1258974970983654  0.5483168552595391
  0.0674708250739150  0.3159236109686924  0.4258420334909577
  0.2476603059722987  0.2492385057578862  0.5006791465885075
  0.1881768151546272  0.4505511777954718  0.3776403212067821
  0.0680812383350211  0.8136391270471749  0.1360097493583147
  0.2579183608747587  0.7473987225626511  0.2027608759253955
  0.1859325287187372  0.9379779811141916  0.0747939710644081
  0.7510258613471176  0.7446825146189330  0.2985273756264054
  0.2521190911020286  0.2517180311186052  0.7041511814920826
  0.6279987225705556  0.1244543227646054  0.8399270104662395
  0.0045542783723752  0.4989755769099072  0.4998796810609330
  0.1874176623206866  0.4411678592048688  0.5758758861538804
  0.3741028448028817  0.3813048400305131  0.6567795077603178
  0.6803936915911433  0.4434574505532790  0.6880237730720210
  0.8660526204375031  0.3755047910651236  0.7457583554504419
  0.2532436265137519  0.7445244053496533  0.3985072613328424
  0.3711190979292905  0.8710594913330583  0.3475744748944304
  0.9365856024904815  0.6777705510429741  0.5899853330231905
  0.4304544929899134  0.1920865817863583  0.9707857795983067
  0.8749149738963860  0.3727416663113113  0.9406696611888795
  0.6190835256954133  0.6283365119866462  0.7518482616032089
  0.5650540599421000  0.8153012191974377  0.6279995423200615
  0.6906332502689982  0.9386829441146337  0.7723602024463688
  0.1866687043545215  0.9370027744952334  0.8779443656134583
  0.3098129517415177  0.0668826179831880  0.0269189130412530
  0.8060716769367026  0.0631941514138275  0.1204808016737965
 -0.0051920358732417  0.0048383249775331  0.1963064179436633
  0.5051136219155734  0.4964212087146639  0.0038488505310759
  0.8760351393345571  0.3675074408995392  0.1398095422952143
  0.8068850099408365  0.5527718948942265  0.0217371998828946
  0.6231342040099822  0.1186799190837557  0.4352478428367888
  0.7503800167640294  0.2623608881746721  0.4113935494357187
  0.8847410369891914  0.3746971349182183  0.3432906231325085
  0.3127749097559427  0.0668030279903769  0.6204206097854581
  0.3690033282114977  0.3789884430159600  0.4517486605288338
  0.5612827749721483  0.3095107021225935  0.5058582751153780
  0.3280601854580683  0.5543712007716489  0.3218857130801457
  0.6891004094848253  0.4434369741486905  0.4924373909116159
  0.8841606413307683  0.3701866660558426  0.5459009546679258
  0.6919022288750206  0.9264765676904918  0.1707360687430738
  0.4401963238343459  0.1878378708344586  0.7743533929679909
  0.1219047516136401  0.6400858297554529  0.4734966186872913
  0.5016037596160156  0.4931223769571956  0.5962466297854415
  0.0574038558911523  0.8084149249123921  0.3438162127679043
  0.1803476905457868  0.9348739777153218  0.2759558752866696
  0.5593222527427960  0.8093699983125311  0.4284402010450259
 -0.0107851694380728  0.4980051827068488  0.6973921281987484
  0.3649231875419556  0.3706246397710565  0.8543499017405396
  0.4949930346731903  0.4960870728291752  0.7992436434859351
  0.2368580713566459  0.7518944773819627  0.6008730615831269
  0.7538476336058495  0.7447715471414224  0.7069953961205007
  0.9485984246528079  0.6835166363303707  0.7914518582825670
  0.8764980483571854  0.8708062765900325  0.6521815203359642
  0.1836867891964609  0.4418184476239362  0.9751343504906300
  0.1348895555572510  0.6242051486738013  0.8700544945868554
  0.9396339573880390  0.6797742931922141  0.9903547465046481
  0.5022712097348524 -0.0042244779287059  0.0949031377879824
  0.6203731570099509  0.1246645765259024  0.0332410706404719
  0.0576619639718368  0.3115502884764301  0.0213050908545645
  0.6171353316422657  0.1146725302677020  0.2287814811061566
  0.5559120974492259  0.3094052420233430  0.1105743505139030
  0.1200912024736085  0.1274306884459818  0.3449575721146227
  0.3077734393230181  0.0610502998043242  0.4207450929563279
  0.8100759860228188  0.0834652221888757  0.5266793957631615
  0.1956533906018459  0.4482021379618563  0.1821018666206333
  0.5722450652713822  0.2982678902052655  0.3104268730838364
  0.9494034186428585  0.6872953823865012  0.1908751481760945
  0.5040114489345118 -0.0006148357755599  0.6977317300933351
  0.6272351382815213  0.1298034816323557  0.6416953464599544
  0.8128841351771564  0.0639182350111636  0.7200362898735020
  0.0096797114105813  0.5067612746971654  0.2997535392380495
  0.7384117928632979  0.2669175191230083  0.6035298808036751
  0.9289301522034702  0.1967032189610117  0.6650661705504488
  0.4456740328643149  0.6888622572012723  0.2752378706802514
  0.5637873967941549  0.8093169315440706  0.2230870699171089
  0.1186920178665671  0.1298746868316722  0.7465935400598560
  0.5635382920700404  0.3133265051458499  0.7127821510280624
  0.7510787835453883  0.2482507203808907  0.7978477727873490
  0.6232157141797398  0.6350880548479511  0.5546578634830751
  0.8035196625009119  0.5579030564341193  0.6222989355215209
  0.1802213231853360  0.4411502109653247  0.7722715132321591
  0.4388585465735540  0.6880267433608365  0.6700739231065558
  0.8120764107210816  0.5648074815499143  0.8178577233569932
 -0.0056941170220994  0.5008827240691724  0.8970152978976150
  0.2527331696363329  0.7541042435811909  0.8050094158290738
  0.4391926027059569  0.6883933496461672  0.8745044341220859
  0.0620895333040168  0.8095845538220066  0.9348645072939267
  0.3753833267458627  0.8758735781103016  0.9484228885556563
  0.7549980029007323  0.2424533925630483  0.0013262787307366
  0.9380731136728692  0.1810818700275655  0.0634243744044504
  0.3679827728401051  0.3745794096753320  0.0572566185784948
  0.7428082596246142  0.2502920799567285  0.2033797454014931
 -0.0037907723372367  0.0073498751555378  0.4010649884915516
  0.2507862573571225  0.2567469486152482  0.2988183463243733
  0.0047680234408359  0.5030202202599413  0.0952051991141564
  0.9427161511822609  0.1879334105692630  0.4585304148447471
  0.3258806709998829  0.5666592179349819  0.1192469690689817
  0.5069553219921434  0.4945546392304750  0.2054130349243380
  0.4427230431191281  0.6942078064407909  0.0728689756901634
  0.5728169050596315  0.8111493588134990  0.0233522056300129
  0.8762943370802395  0.8714994934786064  0.0538321773290722
 -0.0033785423273861  0.0036868494924196  0.5967037897192419
  0.1361849576374856  0.6302393517196958  0.2677168824677332
  0.5135134860167551  0.4942833759019891  0.3986626075373659
  0.6320312928664957  0.6198820596717658  0.3523897005860252
  0.3733253490330019  0.8755180532054112  0.1470455087016431
  0.9285148860770907  0.6800319985832201  0.3888051130839539
  0.3145779459107509  0.0519976937002605  0.8191234237431504
  0.0708130683829777  0.3115006624802195  0.6280624038825374
  0.8128826694633720  0.0625087472836771  0.9170256526481277
  0.3115242510357275  0.5669822366904952  0.5298703827847653
  0.4367502743342452  0.6670206557346039  0.4706851932711593
  0.8617876360244807  0.8906283696305912  0.4481686998455616
  0.0570745323297012  0.3180318294381063  0.8199550745494720
  0.2347917225472809  0.2490794864378098  0.8987241263912377
  0.1264813676908244  0.6178875162079833  0.6710168666907192
  0.3078308865301584  0.5705016879988560  0.7221453085985079
  0.6862466335857964  0.4403254894571537  0.8881739978666473
  0.3761148243664295  0.8709901824581173  0.5475927072203032
  0.0690704171635168  0.8114782289115431  0.7302096687580033
  0.3066758137971176  0.0625914583284908  0.2251813805238030
  0.4955137998039382 -0.0068567818929246  0.2908437967060664
  0.2439305293807950  0.2583324069284544  0.0957560983456017
  0.8034641752987690  0.0772274623807643  0.3239651374591916
  0.6863755193366593  0.4314720117551925  0.0835679576068144
  0.4929191888271925  0.0000054399579538  0.4988581124272669
  0.0654801458005554  0.3189136890301816  0.2215636855627223
  0.4348553019293144  0.1875812153618704  0.3673393774282765
  0.3864919884350569  0.3700051185789013  0.2463729416619923
  0.2524214672042514  0.7506210088657072  0.0008266970274716
  0.8213119133301088  0.5555453858744321  0.2227586847767885
  0.4376250919473988  0.1970300497710732  0.5770256109826887
  0.8154485975185380  0.5562471109242360  0.4276491996523702
  0.8763971788796386  0.8771819977501061  0.2543990654550372
 -0.0021144651421935 -0.0008820481933179  0.7926675586604240
  0.4963371068050466  0.0038629165723889  0.8964600636239500
  0.9366458851385792  0.1863115586803631  0.8724150933773623
  0.7541036999740660  0.7513182493708107  0.5034591001566405
  0.6835131464304618  0.9320971227374338  0.3680658268053030
  0.1245537847331045  0.1232156072135421  0.9441012638846160
  0.5624349257500791  0.3142637259677380  0.9109900804083727
  0.0420522170530123  0.8209956798141999  0.5415116727265543
  0.1845421813537571  0.9301685649258344  0.4756862095720135
  0.6921879654411266  0.9460218490585041  0.5749170064355953
  0.3207347699391682  0.5583607674975499  0.9260531248043857
  0.6218886881485511  0.6263281876397674  0.9493018962682688
  0.1827547922499862  0.9425148873342972  0.6781865830799515
  0.3781107906271815  0.8725433795105541  0.7454341242709553
  0.5670105035947356  0.8137155258445574  0.8320757638668453
  0.7558996921542046  0.7437085466837795  0.9041114614672375
  0.8770436061127072  0.8708227910729917  0.8555207633161771
  0.6952434551242432  0.9383392146130063  0.9732842911014410
 
  0.00000000E+00  0.00000000E+00  0.00000000E+00
  0.00000000E+00  0.00000000E+00  0.00000000E+00
  0.00000000E+00  0.00000000E+00  0.00000000E+00
  0.00000000E+00  0.00000000E+00  0.00000000E+00
  0.00000000E+00  0.00000000E+00  0.00000000E+00
  0.00000000E+00  0.00000000E+00  0.00000000E+00
  0.00000000E+00  0.00000000E+00  0.00000000E+00
  0.00000000E+00  0.00000000E+00  0.00000000E+00
  0.00000000E+00  0.00000000E+00  0.00000000E+00
  0.00000000E+00  0.00000000E+00  0.00000000E+00
  0.00000000E+00  0.00000000E+00  0.00000000E+00
  0.00000000E+00  0.00000000E+00  0.00000000E+00
  0.00000000E+00  0.00000000E+00  0.00000000E+00
  0.00000000E+00  0.00000000E+00  0.00000000E+00
  0.00000000E+00  0.00000000E+00  0.00000000E+00
  0.00000000E+00  0.00000000E+00  0.00000000E+00
  0.00000000E+00  0.00000000E+00  0.00000000E+00
  0.00000000E+00  0.00000000E+00  0.00000000E+00
  0.00000000E+00  0.00000000E+00  0.00000000E+00
  0.00000000E+00  0.00000000E+00  0.00000000E+00
  0.00000000E+00  0.00000000E+00  0.00000000E+00
  0.00000000E+00  0.00000000E+00  0.00000000E+00
  0.00000000E+00  0.00000000E+00  0.00000000E+00
  0.00000000E+00  0.00000000E+00  0.00000000E+00
  0.00000000E+00  0.00000000E+00  0.00000000E+00
  0.00000000E+00  0.00000000E+00  0.00000000E+00
  0.00000000E+00  0.00000000E+00  0.00000000E+00
  0.00000000E+00  0.00000000E+00  0.00000000E+00
  0.00000000E+00  0.00000000E+00  0.00000000E+00
  0.00000000E+00  0.00000000E+00  0.00000000E+00
  0.00000000E+00  0.00000000E+00  0.00000000E+00
  0.00000000E+00  0.00000000E+00  0.00000000E+00
  0.00000000E+00  0.00000000E+00  0.00000000E+00
  0.00000000E+00  0.00000000E+00  0.00000000E+00
  0.00000000E+00  0.00000000E+00  0.00000000E+00
  0.00000000E+00  0.00000000E+00  0.00000000E+00
  0.00000000E+00  0.00000000E+00  0.00000000E+00
  0.00000000E+00  0.00000000E+00  0.00000000E+00
  0.00000000E+00  0.00000000E+00  0.00000000E+00
  0.00000000E+00  0.00000000E+00  0.00000000E+00
  0.00000000E+00  0.00000000E+00  0.00000000E+00
  0.00000000E+00  0.00000000E+00  0.00000000E+00
  0.00000000E+00  0.00000000E+00  0.00000000E+00
  0.00000000E+00  0.00000000E+00  0.00000000E+00
  0.00000000E+00  0.00000000E+00  0.00000000E+00
  0.00000000E+00  0.00000000E+00  0.00000000E+00
  0.00000000E+00  0.00000000E+00  0.00000000E+00
  0.00000000E+00  0.00000000E+00  0.00000000E+00
  0.00000000E+00  0.00000000E+00  0.00000000E+00
  0.00000000E+00  0.00000000E+00  0.00000000E+00
  0.00000000E+00  0.00000000E+00  0.00000000E+00
  0.00000000E+00  0.00000000E+00  0.00000000E+00
  0.00000000E+00  0.00000000E+00  0.00000000E+00
  0.00000000E+00  0.00000000E+00  0.00000000E+00
  0.00000000E+00  0.00000000E+00  0.00000000E+00
  0.00000000E+00  0.00000000E+00  0.00000000E+00
  0.00000000E+00  0.00000000E+00  0.00000000E+00
  0.00000000E+00  0.00000000E+00  0.00000000E+00
  0.00000000E+00  0.00000000E+00  0.00000000E+00
  0.00000000E+00  0.00000000E+00  0.00000000E+00
  0.00000000E+00  0.00000000E+00  0.00000000E+00
  0.00000000E+00  0.00000000E+00  0.00000000E+00
  0.00000000E+00  0.00000000E+00  0.00000000E+00
  0.00000000E+00  0.00000000E+00  0.00000000E+00
  0.00000000E+00  0.00000000E+00  0.00000000E+00
  0.00000000E+00  0.00000000E+00  0.00000000E+00
  0.00000000E+00  0.00000000E+00  0.00000000E+00
  0.00000000E+00  0.00000000E+00  0.00000000E+00
  0.00000000E+00  0.00000000E+00  0.00000000E+00
  0.00000000E+00  0.00000000E+00  0.00000000E+00
  0.00000000E+00  0.00000000E+00  0.00000000E+00
  0.00000000E+00  0.00000000E+00  0.00000000E+00
  0.00000000E+00  0.00000000E+00  0.00000000E+00
  0.00000000E+00  0.00000000E+00  0.00000000E+00
  0.00000000E+00  0.00000000E+00  0.00000000E+00
  0.00000000E+00  0.00000000E+00  0.00000000E+00
  0.00000000E+00  0.00000000E+00  0.00000000E+00
  0.00000000E+00  0.00000000E+00  0.00000000E+00
  0.00000000E+00  0.00000000E+00  0.00000000E+00
  0.00000000E+00  0.00000000E+00  0.00000000E+00
  0.00000000E+00  0.00000000E+00  0.00000000E+00
  0.00000000E+00  0.00000000E+00  0.00000000E+00
  0.00000000E+00  0.00000000E+00  0.00000000E+00
  0.00000000E+00  0.00000000E+00  0.00000000E+00
  0.00000000E+00  0.00000000E+00  0.00000000E+00
  0.00000000E+00  0.00000000E+00  0.00000000E+00
  0.00000000E+00  0.00000000E+00  0.00000000E+00
  0.00000000E+00  0.00000000E+00  0.00000000E+00
  0.00000000E+00  0.00000000E+00  0.00000000E+00
  0.00000000E+00  0.00000000E+00  0.00000000E+00
  0.00000000E+00  0.00000000E+00  0.00000000E+00
  0.00000000E+00  0.00000000E+00  0.00000000E+00
  0.00000000E+00  0.00000000E+00  0.00000000E+00
  0.00000000E+00  0.00000000E+00  0.00000000E+00
  0.00000000E+00  0.00000000E+00  0.00000000E+00
  0.00000000E+00  0.00000000E+00  0.00000000E+00
  0.00000000E+00  0.00000000E+00  0.00000000E+00
  0.00000000E+00  0.00000000E+00  0.00000000E+00
  0.00000000E+00  0.00000000E+00  0.00000000E+00
  0.00000000E+00  0.00000000E+00  0.00000000E+00
  0.00000000E+00  0.00000000E+00  0.00000000E+00
  0.00000000E+00  0.00000000E+00  0.00000000E+00
  0.00000000E+00  0.00000000E+00  0.00000000E+00
  0.00000000E+00  0.00000000E+00  0.00000000E+00
  0.00000000E+00  0.00000000E+00  0.00000000E+00
  0.00000000E+00  0.00000000E+00  0.00000000E+00
  0.00000000E+00  0.00000000E+00  0.00000000E+00
  0.00000000E+00  0.00000000E+00  0.00000000E+00
  0.00000000E+00  0.00000000E+00  0.00000000E+00
  0.00000000E+00  0.00000000E+00  0.00000000E+00
  0.00000000E+00  0.00000000E+00  0.00000000E+00
  0.00000000E+00  0.00000000E+00  0.00000000E+00
  0.00000000E+00  0.00000000E+00  0.00000000E+00
  0.00000000E+00  0.00000000E+00  0.00000000E+00
  0.00000000E+00  0.00000000E+00  0.00000000E+00
  0.00000000E+00  0.00000000E+00  0.00000000E+00
  0.00000000E+00  0.00000000E+00  0.00000000E+00
  0.00000000E+00  0.00000000E+00  0.00000000E+00
  0.00000000E+00  0.00000000E+00  0.00000000E+00
  0.00000000E+00  0.00000000E+00  0.00000000E+00
  0.00000000E+00  0.00000000E+00  0.00000000E+00
  0.00000000E+00  0.00000000E+00  0.00000000E+00
  0.00000000E+00  0.00000000E+00  0.00000000E+00
  0.00000000E+00  0.00000000E+00  0.00000000E+00
  0.00000000E+00  0.00000000E+00  0.00000000E+00
  0.00000000E+00  0.00000000E+00  0.00000000E+00
  0.00000000E+00  0.00000000E+00  0.00000000E+00
  0.00000000E+00  0.00000000E+00  0.00000000E+00
  0.00000000E+00  0.00000000E+00  0.00000000E+00
  0.00000000E+00  0.00000000E+00  0.00000000E+00
  0.00000000E+00  0.00000000E+00  0.00000000E+00
  0.00000000E+00  0.00000000E+00  0.00000000E+00
  0.00000000E+00  0.00000000E+00  0.00000000E+00
  0.00000000E+00  0.00000000E+00  0.00000000E+00
  0.00000000E+00  0.00000000E+00  0.00000000E+00
  0.00000000E+00  0.00000000E+00  0.00000000E+00
  0.00000000E+00  0.00000000E+00  0.00000000E+00
  0.00000000E+00  0.00000000E+00  0.00000000E+00
  0.00000000E+00  0.00000000E+00  0.00000000E+00
  0.00000000E+00  0.00000000E+00  0.00000000E+00
  0.00000000E+00  0.00000000E+00  0.00000000E+00
  0.00000000E+00  0.00000000E+00  0.00000000E+00
  0.00000000E+00  0.00000000E+00  0.00000000E+00
  0.00000000E+00  0.00000000E+00  0.00000000E+00
  0.00000000E+00  0.00000000E+00  0.00000000E+00
  0.00000000E+00  0.00000000E+00  0.00000000E+00
  0.00000000E+00  0.00000000E+00  0.00000000E+00
  0.00000000E+00  0.00000000E+00  0.00000000E+00
  0.00000000E+00  0.00000000E+00  0.00000000E+00
  0.00000000E+00  0.00000000E+00  0.00000000E+00
  0.00000000E+00  0.00000000E+00  0.00000000E+00
  0.00000000E+00  0.00000000E+00  0.00000000E+00
  0.00000000E+00  0.00000000E+00  0.00000000E+00
  0.00000000E+00  0.00000000E+00  0.00000000E+00
  0.00000000E+00  0.00000000E+00  0.00000000E+00
  0.00000000E+00  0.00000000E+00  0.00000000E+00
  0.00000000E+00  0.00000000E+00  0.00000000E+00
  0.00000000E+00  0.00000000E+00  0.00000000E+00
  0.00000000E+00  0.00000000E+00  0.00000000E+00
  0.00000000E+00  0.00000000E+00  0.00000000E+00
