FeNiCoCrMn_SQSbcc160_33_28              
   2.80000000000000     
    -0.5031787947108182    2.5434968544709933   -0.5094248459313709
    -2.5229158585806193   -0.5127589193343486    2.5338892530386889
     6.0522652218502166    2.0298766686659562    6.0744222864286392
   Fe   Ni   Co   Cr   Mn
    33    33    33    28    33
Direct
  0.8913661899214160  0.7976409255202626  0.0739142156238641
  0.6474077750151810  0.8086889514365434  0.1373412338834302
  0.7783538158626517  0.7982001660625574  0.2324559912777421
  0.8984313158169008  0.8037617614676951  0.3270009295609250
  0.2752075713813512  0.8008019945417226  0.8541295382735017
  0.0329907176423907  0.7995050412107589  0.9188085470715898
  0.8076768793524226  0.5976358640567211  0.4026185061362383
  0.5497730862817101  0.6070232028917675  0.4599650221697865
  0.1735281369162154  0.6035328261067263  0.6819696574176672
  0.1711411434977222  0.5929662249725457  0.9305346806743194
  0.9393421084889807  0.3938416361129031  0.4150851970717929
  0.1974006733079556  0.4062100773926941  0.1019866711419988
  0.3237181485236656  0.4062160663839543  0.1947655758530854
  0.0684332463085103  0.3952361624611411  0.2555038678014350
  0.4390782608586759  0.3973221126143763  0.5367175521802859
  0.6996496518550180  0.4029139683250326  0.9750882680211069
  0.3248286139482313  0.3996030414590310  0.9432231970473479
  0.6004398858424566  0.1980232060497238  0.0519302747929119
  0.8424311236024923  0.2027768984339868  0.2361088239611085
  0.4697036616804418  0.1949484215673740  0.2071192046316382
  0.9736088987771997  0.1968449777562933  0.5804685301053899
  0.0960333212338736  0.2006798954009203  0.1774397332952972
  0.2211679395208583  0.1970074278892555  0.5180042410875478
  0.3500617059540417  0.1966830313991128  0.6102514257536162
  0.7385924371489557 -0.0071297488603043  0.3142635425070931
 -0.0017274736478177 -0.0012366700912713 -0.0006098701686647
  0.1200938216910922 -0.0056490955125157  0.0945287556487997
  0.4998355754096710 -0.0006072551417834  0.3758543758589236
  0.6314302520163614  0.0020029017739291  0.7197769355742413
  0.8813008299916302  0.0014956912276154  0.9057793468425299
  0.0006958192666737 -0.0032374625997068  0.4995670978301127
  0.1237311143906243 -0.0038234160074525  0.5938248937307244
  0.5008562248287988 -0.0052905019373428  0.8739585600617296
  0.5388176646679838  0.7970962166889258  0.0419432568917342
  0.6483028808218719  0.7973929935730489  0.3891210234626872
  0.0148581315425544  0.7987964598169714  0.1664187444503035
  0.1385450127956032  0.7995707807761965  0.2617760190783570
  0.8964755499418309  0.7887137665565876  0.8265391281940352
  0.2850843419683988  0.8029120676313736  0.6059779659325971
  0.6494492841284402  0.8029381672415484  0.8896397826789829
  0.0231843022742161  0.7998465696906806  0.6657798026626341
  0.3915843306871762  0.7956257489646775  0.9494254074630176
  0.4387577600188401  0.5927616089275936  0.1187118557983351
  0.6873500910004628  0.5938554884737507  0.3084405270139985
  0.2841691621670404  0.5975237376572929  0.2734984294220644
  0.4151883318519761  0.5996206206497513  0.3666832632746880
  0.5661697374442994  0.6177383721403725  0.7126272789447241
  0.8077205156323897  0.6032534714077007  0.8989884764555788
  0.5518262034147102  0.6008357151461796  0.9640152262897209
  0.4491243306099019  0.4000659890728304  0.0397133005058550
  0.8338597732051688  0.3944949697276544  0.3204912818371001
  0.6894939524616628  0.4013658116075233  0.4757179021975452
  0.0814080735279326  0.4030261875490244  0.5061413951588604
  0.3336409376291357  0.4082563281922400  0.6941116737868960
  0.5847285658417029  0.3990396017893069  0.8812839232427578
  0.9835127066559360  0.2034166751704924  0.0841677992738173
  0.9666366190352160  0.1904755320895120  0.3305773222620349
  0.3357446553707282  0.2021252864456483  0.1123013837172107
  0.3575224287478503  0.2017580884231080  0.3618955313248970
  0.1040085920001523  0.2012937070450516  0.4234043421415105
  0.3537439776194622  0.1933188758932522  0.8627653157936161
  0.7545364083494410  0.0047408029870743  0.0619427759666518
  0.3722645520152976 -0.0060310574766726  0.2826049523748879
  0.8687065973401333  0.0011175046074726  0.6533412068777051
  0.6247423490193482 -0.0066315254898234  0.9666788883451845
  0.0057510715964513  0.0143539526784948  0.7470240997108399
  0.1414518380349089  0.8011007724681677  0.0126351246100669
  0.7900984188708837  0.8161465904774772  0.7318071708715915
  0.0222009374370401  0.7996153018239778  0.4198742741972801
  0.7843747863495945  0.8002865969065623  0.9800890163488136
  0.6866479260961980  0.5994377990175990  0.0568239707989134
  0.9311432301498315  0.5955493177738537  0.2426289463025376
  0.9264079416132548  0.6061319031436195  0.4946654033369001
  0.0468744066719040  0.6015162237585104  0.0884940283276339
  0.1764118804628352  0.6039627760513148  0.1795481796747087
  0.7994834735744785  0.5941047499234529  0.6470013466442541
  0.9201875166682619  0.6103513246579162  0.7413785550178523
  0.1655355481182560  0.5872814224230654  0.4312134308520141
  0.3062821222108307  0.6009814735626260  0.5253333037458014
  0.4243500134492397  0.5938818187901378  0.6205387705934760
  0.6729229857972130  0.5865508335566785  0.8055091214433115
  0.8143972886099616  0.3986723574818415  0.0677838776732454
  0.9522640106512743  0.4016034100724352  0.1630073938945578
  0.5731768576012219  0.3977551358949273  0.6280645195078350
  0.6964410202765680  0.4063526364725497  0.7233975827026462
  0.9420261958586353  0.3964248327182961  0.9135596755968197
  0.2038191910172709  0.3962388342508451  0.8506304763906634
  0.7114947989615246  0.2015484138583114  0.3934959897142341
  0.4712729964672664  0.1934957225367288  0.4579749870598488
  0.5980867335882073  0.2036752899000106  0.5494001094638638
  0.7296966225656238  0.2060262565100020  0.6438460553649176
  0.1031272167239319  0.2011655549835522  0.9246229539708244
  0.8725530435480514  0.0060164548266179  0.1557214214240828
  0.5115295631419882  0.0122426177684700  0.1284315946910352
  0.8702203863196983  0.0043313056428545  0.4080944263436275
  0.2457803071335657  0.0031240589297337  0.1857472285741952
  0.5132376907179838  0.0061772639552408  0.6258541428936968
  0.2525878801266248  0.0015851723477906  0.6854968563402387
  0.2502395293139075  0.0011098415737772  0.9364483416833463
  0.2852307547764172  0.8002968748716669  0.1082057360812421
  0.7752788881778138  0.8070061437092146  0.4826157184144626
  0.2742435656064718  0.8024018476365833  0.3547059466310601
  0.3839569569410931  0.7957650214798297  0.4494817102522271
  0.6490255942525873  0.7947959532246331  0.6376465640753708
  0.1597656236079720  0.7989848482452974  0.5118847912363823
  0.1554295359649271  0.8120876294471748  0.7622019539468600
  0.5525607296822932  0.6080818181820182  0.2141284131687738
  0.6709165311195076  0.5923698342114232  0.5534629097778424
  0.0493049773697077  0.6081573014465755  0.3393892938983347
  0.3062860271181991  0.5919311933374700  0.7746727108331994
  0.5829063980389678  0.3901837302738823  0.1379332540943936
  0.6900390609913382  0.4025703009300747  0.2266936841791214
  0.4461656791379882  0.4004006423017820  0.2902454019958760
  0.1883628524238729  0.3969759607420825  0.3519790326172918
  0.3391658981042930  0.4005041312496690  0.4392942001241472
  0.8422780997271537  0.4024961597077045  0.8176991561447842
  0.4502768420341532  0.3926143865267420  0.7901673848068002
  0.7222421391153638  0.2069432525474474  0.1434777834976047
  0.8499919460881981  0.1930884200691328  0.4869982019921380
  0.2215460739667063  0.2002954370788572  0.2667059386650255
  0.7189600716684622  0.1913283589169226  0.8916934551928821
  0.8474142779311473  0.2049710287835006  0.9892783736594268
  0.6305089301660429 -0.0041420236954779  0.2216056803987031
  0.6119294849357421 -0.0119068690898476  0.4675933915563937
  0.1200058885369464 -0.0036452458458080  0.3463762220704438
  0.3728742805391966 -0.0071862889078388  0.5315615735030789
  0.7534675429565714 -0.0042437098935027  0.8121079772873743
  0.3955865230710494  0.8048311468947317  0.2010425180431128
  0.5252977509749783  0.7867058530525795  0.2958760725703174
  0.8812849603317329  0.7974006187477679  0.5736721223319006
  0.5298269688401898  0.7949510244565599  0.5439143535134940
  0.3982702056146302  0.8055417587885617  0.6997429412637659
  0.5379249655747997  0.7938798680017634  0.7946699315343989
  0.7886338854851420  0.5963677759325589  0.1501163798468001
  0.3018373185423379  0.6064657694594832  0.0261680760898014
  0.9259790360046406  0.5999138212093766  0.9934437528258638
  0.0559952880015512  0.6069243588850051  0.5870868433538875
  0.4305673769391130  0.6006157534909298  0.8693632756581513
  0.0586620585081016  0.5964450107498718  0.8357573696459744
  0.0664530632141575  0.3942821380799387  0.0070843180594581
  0.5755416304699947  0.4060562550371267  0.3804051688447544
  0.8261113446477943  0.4006446084932501  0.5673767562143018
  0.9518820440114771  0.4038331767346306  0.6633404616773195
  0.1955102322751132  0.3971357325178989  0.6009518536964362
  0.0733034080769897  0.4075438404253663  0.7559424251085158
  0.2274124736803009  0.1985078902526223  0.0188130958315839
  0.5979897047505419  0.2002038043703768  0.2993301249349707
  0.8428441267067260  0.2062878344893620  0.7366970883498085
  0.9660852225636281  0.2012592594911927  0.8328283924762975
  0.4755069085247761  0.2023516451329236  0.7054060310881866
  0.6097345784888007  0.2111429159940192  0.7985020589229708
  0.1047084287990598  0.1999688651120698  0.6758274485050361
  0.2265720627566739  0.2134385782097372  0.7676195058232655
  0.4859678427557262  0.1974370098836176  0.9555747771358583
  0.3805062862414172 -0.0093093255124420  0.0313304263400367
  0.7475831598748098  0.0031876920273469  0.5603742728115606
  0.0062631530675393  0.0041436412456586  0.2519215058614843
  0.2493158886549939 -0.0009760420824596  0.4362607835404765
  0.3785996087753712  0.0086504463571685  0.7795841503176177
  0.1222921205990022 -0.0026597674938528  0.8419271763765713
 
  0.00000000E+00  0.00000000E+00  0.00000000E+00
  0.00000000E+00  0.00000000E+00  0.00000000E+00
  0.00000000E+00  0.00000000E+00  0.00000000E+00
  0.00000000E+00  0.00000000E+00  0.00000000E+00
  0.00000000E+00  0.00000000E+00  0.00000000E+00
  0.00000000E+00  0.00000000E+00  0.00000000E+00
  0.00000000E+00  0.00000000E+00  0.00000000E+00
  0.00000000E+00  0.00000000E+00  0.00000000E+00
  0.00000000E+00  0.00000000E+00  0.00000000E+00
  0.00000000E+00  0.00000000E+00  0.00000000E+00
  0.00000000E+00  0.00000000E+00  0.00000000E+00
  0.00000000E+00  0.00000000E+00  0.00000000E+00
  0.00000000E+00  0.00000000E+00  0.00000000E+00
  0.00000000E+00  0.00000000E+00  0.00000000E+00
  0.00000000E+00  0.00000000E+00  0.00000000E+00
  0.00000000E+00  0.00000000E+00  0.00000000E+00
  0.00000000E+00  0.00000000E+00  0.00000000E+00
  0.00000000E+00  0.00000000E+00  0.00000000E+00
  0.00000000E+00  0.00000000E+00  0.00000000E+00
  0.00000000E+00  0.00000000E+00  0.00000000E+00
  0.00000000E+00  0.00000000E+00  0.00000000E+00
  0.00000000E+00  0.00000000E+00  0.00000000E+00
  0.00000000E+00  0.00000000E+00  0.00000000E+00
  0.00000000E+00  0.00000000E+00  0.00000000E+00
  0.00000000E+00  0.00000000E+00  0.00000000E+00
  0.00000000E+00  0.00000000E+00  0.00000000E+00
  0.00000000E+00  0.00000000E+00  0.00000000E+00
  0.00000000E+00  0.00000000E+00  0.00000000E+00
  0.00000000E+00  0.00000000E+00  0.00000000E+00
  0.00000000E+00  0.00000000E+00  0.00000000E+00
  0.00000000E+00  0.00000000E+00  0.00000000E+00
  0.00000000E+00  0.00000000E+00  0.00000000E+00
  0.00000000E+00  0.00000000E+00  0.00000000E+00
  0.00000000E+00  0.00000000E+00  0.00000000E+00
  0.00000000E+00  0.00000000E+00  0.00000000E+00
  0.00000000E+00  0.00000000E+00  0.00000000E+00
  0.00000000E+00  0.00000000E+00  0.00000000E+00
  0.00000000E+00  0.00000000E+00  0.00000000E+00
  0.00000000E+00  0.00000000E+00  0.00000000E+00
  0.00000000E+00  0.00000000E+00  0.00000000E+00
  0.00000000E+00  0.00000000E+00  0.00000000E+00
  0.00000000E+00  0.00000000E+00  0.00000000E+00
  0.00000000E+00  0.00000000E+00  0.00000000E+00
  0.00000000E+00  0.00000000E+00  0.00000000E+00
  0.00000000E+00  0.00000000E+00  0.00000000E+00
  0.00000000E+00  0.00000000E+00  0.00000000E+00
  0.00000000E+00  0.00000000E+00  0.00000000E+00
  0.00000000E+00  0.00000000E+00  0.00000000E+00
  0.00000000E+00  0.00000000E+00  0.00000000E+00
  0.00000000E+00  0.00000000E+00  0.00000000E+00
  0.00000000E+00  0.00000000E+00  0.00000000E+00
  0.00000000E+00  0.00000000E+00  0.00000000E+00
  0.00000000E+00  0.00000000E+00  0.00000000E+00
  0.00000000E+00  0.00000000E+00  0.00000000E+00
  0.00000000E+00  0.00000000E+00  0.00000000E+00
  0.00000000E+00  0.00000000E+00  0.00000000E+00
  0.00000000E+00  0.00000000E+00  0.00000000E+00
  0.00000000E+00  0.00000000E+00  0.00000000E+00
  0.00000000E+00  0.00000000E+00  0.00000000E+00
  0.00000000E+00  0.00000000E+00  0.00000000E+00
  0.00000000E+00  0.00000000E+00  0.00000000E+00
  0.00000000E+00  0.00000000E+00  0.00000000E+00
  0.00000000E+00  0.00000000E+00  0.00000000E+00
  0.00000000E+00  0.00000000E+00  0.00000000E+00
  0.00000000E+00  0.00000000E+00  0.00000000E+00
  0.00000000E+00  0.00000000E+00  0.00000000E+00
  0.00000000E+00  0.00000000E+00  0.00000000E+00
  0.00000000E+00  0.00000000E+00  0.00000000E+00
  0.00000000E+00  0.00000000E+00  0.00000000E+00
  0.00000000E+00  0.00000000E+00  0.00000000E+00
  0.00000000E+00  0.00000000E+00  0.00000000E+00
  0.00000000E+00  0.00000000E+00  0.00000000E+00
  0.00000000E+00  0.00000000E+00  0.00000000E+00
  0.00000000E+00  0.00000000E+00  0.00000000E+00
  0.00000000E+00  0.00000000E+00  0.00000000E+00
  0.00000000E+00  0.00000000E+00  0.00000000E+00
  0.00000000E+00  0.00000000E+00  0.00000000E+00
  0.00000000E+00  0.00000000E+00  0.00000000E+00
  0.00000000E+00  0.00000000E+00  0.00000000E+00
  0.00000000E+00  0.00000000E+00  0.00000000E+00
  0.00000000E+00  0.00000000E+00  0.00000000E+00
  0.00000000E+00  0.00000000E+00  0.00000000E+00
  0.00000000E+00  0.00000000E+00  0.00000000E+00
  0.00000000E+00  0.00000000E+00  0.00000000E+00
  0.00000000E+00  0.00000000E+00  0.00000000E+00
  0.00000000E+00  0.00000000E+00  0.00000000E+00
  0.00000000E+00  0.00000000E+00  0.00000000E+00
  0.00000000E+00  0.00000000E+00  0.00000000E+00
  0.00000000E+00  0.00000000E+00  0.00000000E+00
  0.00000000E+00  0.00000000E+00  0.00000000E+00
  0.00000000E+00  0.00000000E+00  0.00000000E+00
  0.00000000E+00  0.00000000E+00  0.00000000E+00
  0.00000000E+00  0.00000000E+00  0.00000000E+00
  0.00000000E+00  0.00000000E+00  0.00000000E+00
  0.00000000E+00  0.00000000E+00  0.00000000E+00
  0.00000000E+00  0.00000000E+00  0.00000000E+00
  0.00000000E+00  0.00000000E+00  0.00000000E+00
  0.00000000E+00  0.00000000E+00  0.00000000E+00
  0.00000000E+00  0.00000000E+00  0.00000000E+00
  0.00000000E+00  0.00000000E+00  0.00000000E+00
  0.00000000E+00  0.00000000E+00  0.00000000E+00
  0.00000000E+00  0.00000000E+00  0.00000000E+00
  0.00000000E+00  0.00000000E+00  0.00000000E+00
  0.00000000E+00  0.00000000E+00  0.00000000E+00
  0.00000000E+00  0.00000000E+00  0.00000000E+00
  0.00000000E+00  0.00000000E+00  0.00000000E+00
  0.00000000E+00  0.00000000E+00  0.00000000E+00
  0.00000000E+00  0.00000000E+00  0.00000000E+00
  0.00000000E+00  0.00000000E+00  0.00000000E+00
  0.00000000E+00  0.00000000E+00  0.00000000E+00
  0.00000000E+00  0.00000000E+00  0.00000000E+00
  0.00000000E+00  0.00000000E+00  0.00000000E+00
  0.00000000E+00  0.00000000E+00  0.00000000E+00
  0.00000000E+00  0.00000000E+00  0.00000000E+00
  0.00000000E+00  0.00000000E+00  0.00000000E+00
  0.00000000E+00  0.00000000E+00  0.00000000E+00
  0.00000000E+00  0.00000000E+00  0.00000000E+00
  0.00000000E+00  0.00000000E+00  0.00000000E+00
  0.00000000E+00  0.00000000E+00  0.00000000E+00
  0.00000000E+00  0.00000000E+00  0.00000000E+00
  0.00000000E+00  0.00000000E+00  0.00000000E+00
  0.00000000E+00  0.00000000E+00  0.00000000E+00
  0.00000000E+00  0.00000000E+00  0.00000000E+00
  0.00000000E+00  0.00000000E+00  0.00000000E+00
  0.00000000E+00  0.00000000E+00  0.00000000E+00
  0.00000000E+00  0.00000000E+00  0.00000000E+00
  0.00000000E+00  0.00000000E+00  0.00000000E+00
  0.00000000E+00  0.00000000E+00  0.00000000E+00
  0.00000000E+00  0.00000000E+00  0.00000000E+00
  0.00000000E+00  0.00000000E+00  0.00000000E+00
  0.00000000E+00  0.00000000E+00  0.00000000E+00
  0.00000000E+00  0.00000000E+00  0.00000000E+00
  0.00000000E+00  0.00000000E+00  0.00000000E+00
  0.00000000E+00  0.00000000E+00  0.00000000E+00
  0.00000000E+00  0.00000000E+00  0.00000000E+00
  0.00000000E+00  0.00000000E+00  0.00000000E+00
  0.00000000E+00  0.00000000E+00  0.00000000E+00
  0.00000000E+00  0.00000000E+00  0.00000000E+00
  0.00000000E+00  0.00000000E+00  0.00000000E+00
  0.00000000E+00  0.00000000E+00  0.00000000E+00
  0.00000000E+00  0.00000000E+00  0.00000000E+00
  0.00000000E+00  0.00000000E+00  0.00000000E+00
  0.00000000E+00  0.00000000E+00  0.00000000E+00
  0.00000000E+00  0.00000000E+00  0.00000000E+00
  0.00000000E+00  0.00000000E+00  0.00000000E+00
  0.00000000E+00  0.00000000E+00  0.00000000E+00
  0.00000000E+00  0.00000000E+00  0.00000000E+00
  0.00000000E+00  0.00000000E+00  0.00000000E+00
  0.00000000E+00  0.00000000E+00  0.00000000E+00
  0.00000000E+00  0.00000000E+00  0.00000000E+00
  0.00000000E+00  0.00000000E+00  0.00000000E+00
  0.00000000E+00  0.00000000E+00  0.00000000E+00
  0.00000000E+00  0.00000000E+00  0.00000000E+00
  0.00000000E+00  0.00000000E+00  0.00000000E+00
  0.00000000E+00  0.00000000E+00  0.00000000E+00
  0.00000000E+00  0.00000000E+00  0.00000000E+00
  0.00000000E+00  0.00000000E+00  0.00000000E+00
  0.00000000E+00  0.00000000E+00  0.00000000E+00
  0.00000000E+00  0.00000000E+00  0.00000000E+00
  0.00000000E+00  0.00000000E+00  0.00000000E+00
