FeNiCoCrMn_SQSfcc24_Fe64                
   3.80000000000000     
     2.3257356615036473   -1.4010938473905277    1.8698085463442427
     1.3955206112265213    2.3351669736025831   -1.8698780183192660
    -1.3957693393091595    2.3363187438519089    1.8711103635810373
   Fe   Ni   Co   Cr   Mn
    64    24    24    24    24
Direct
  0.0635730072493141  0.9001966956318185  0.3394037705134608
  0.0330172071771314  0.7504254814424347  0.4713060985767481
  0.9958026544460633  0.6002622742756247  0.6028695265439228
  0.0946246246928271  0.6444214673141432  0.8077042254646455
  0.2148395017955142  0.8468969919402420  0.8761650065727441
  0.1872907199994945  0.9004459978616981  0.2154825061045486
  0.0367438092314421  0.5518534726884782  0.2704723690619669
  0.9963697841243143  0.3958241727670598  0.3997417916937048
  0.2501354749254349  0.7984433415082869  0.5483603875226193
  0.2187181564114936  0.6515682629300935  0.6806713945200714
  0.0300343689163983  0.1465952340992635  0.8673293752288641
  0.1577617869026259  0.3498007388428953  0.9425595333784691
  0.1826017597991732  0.6948101017589695  0.0119224403663588
  0.2785877555463524  0.7465437595631467  0.2201115587164787
  0.0925343188853920  0.2492140598798341  0.4063451955605784
  0.2172928237527973  0.4551499420315797  0.4800918063786170
  0.3456043755512408  0.6537282464096751  0.5545996028051887
  0.3135288171863660  0.4991802857590050  0.6897611707190927
  0.1573915251809627  0.1550870205290696  0.7413863859830483
  0.5281963043708607  0.7534358009018616  0.9678124150867080
  0.2544491535974136  0.1978930700225969  0.9497384705086768
  0.2785872964129984  0.5531441382959945  0.0136360459347904
  0.1258268229623437  0.1961087687589464  0.0765883063260343
  0.5963517158956817  0.8521961318913563  0.5081159061387515
  0.1899299942167149  0.1000414507348842  0.4118609027557735
  0.3124553293172918  0.3010195987529099  0.4892495351846072
  0.5618661713686980  0.7006022173245615  0.6368250576502699
  0.5283288710175852  0.5528622345547939  0.7681694656488951
  0.6543031036697358  0.7477588814348242  0.8443072058703329
  0.3751697083451838  0.4065478572918318  0.0239943622748365
  0.5016548019107157  0.6043458080321499  0.1003000021653711
  0.2183561083013943  0.0499899830009379  0.0814949931505708
  0.3478115742079118  0.2529366287606241  0.1557274062196659
  0.5988259967919640  0.6507172318091689  0.3078099458945541
  0.7219874762838471  0.8492081711111391  0.3841819834367857
  0.4383194088436188  0.2990999576082495  0.3616640717323374
  0.5591424196542638  0.4981911423668829  0.4335240309005162
  0.6820737067433257  0.6980842930278122  0.5103486979673711
  0.4096347269609319  0.1492150742411130  0.4941351074486385
  0.5301058796876760  0.3501117701901896  0.5669188716701613
  0.7478576119851935  0.5998836358494262  0.8509618791491254
  0.4714175638742620  0.0519062519661182  0.8306236848019536
  0.5934436020940377  0.2517370682475001  0.9073634362727935
  0.7478930348681825  0.8003932243608899  0.0508582411972528
  0.8431163493239927  0.8490301823738559  0.2583257600202918
  0.8142322360781178  0.6969556791182390  0.3906446735005022
  0.7765085066626534  0.5479797902935430  0.5195087378831594
  0.7494682992582071  0.3989550243503548  0.6505554716183969
  0.8730589354330514  0.5971212330130011  0.7286691629239330
  0.5954655022984819  0.0511496556832080  0.7003207576406554
  0.8458496381758277  0.4503244609045332  0.8613669693769654
  0.8124442553209164  0.3037985721032751  0.9911001519339574
  0.8429764826259670  0.6498746753881041  0.0580777428755018
  0.8110879925836550  0.5001666954441810  0.1869676677147877
  0.9377885125720001  0.7004653977975143  0.2609260495256627
  0.7778417012677016  0.3505811637977324  0.3205212841994685
  0.9095245788748092  0.5476789885454150  0.3979241265781538
  0.7461386233620770  0.1993776875853073  0.4480599068943294
  0.9327849523395692  0.2978808009582965  0.8632616367606083
  0.7478979352590301  0.9986661474564911  0.2470374606955563
  0.8717492577771634  0.1978100815680798  0.3203648158580249
  0.8495209048161541  0.0489074064766609  0.4595033747714903
  0.9680592144266712  0.2446211920113262  0.5334926515520568
  0.8787984422579337  0.0028882330195134  0.1231006670520837
  0.9991086260595156  0.7977067862403244  0.7998010467262253
  0.0604259442142835  0.2983589136019812  0.7398991301536373
  0.1568788789779406  0.5489760900465940  0.1438262102004940
  0.1270889255758957  0.4006681639247593  0.2768445963729129
  0.4704364106683453  0.8521382327995968  0.6308809326707842
  0.2828962573312282  0.3497393447608825  0.8203844371467174
  0.1219753603391011  0.9989096731596533  0.8743451476924671
  0.4057678617909158  0.7502112825434766  0.0948293115333335
  0.5319654884367653  0.9502539927497834  0.1650901820075425
  0.0941045460565623  0.0494661118335560  0.2079181092304561
  0.2190522242813872  0.2493822029778411  0.2806571470058000
  0.4074155862899391  0.3515105521257201  0.6942521743398028
  0.3774111203431997  0.2010984901573850  0.8235153097795431
  0.6569011966288477  0.9510184696436290  0.0419050104740527
  0.8119098845175087  0.8998775573426978  0.5876109536229526
  0.5005474742358644  0.2008142523301540  0.6981147078592485
  0.7185772948170035  0.6509231484431610  0.1816623521406416
  0.4389368202376804  0.1026960614734453  0.1620887309919825
  0.6553702101978327  0.3490666454444827  0.4457281644896631
  0.9702666655793861  0.8520452653224767  0.1319755173423393
  0.8719065195833109  0.3972816764282799  0.5273655206483256
  0.9379277018964788  0.5031319302617220  0.0625820254318330
  0.7818540034123939  0.1512116352154723  0.1177148852297657
  0.9701045947320953  0.0495092034458209  0.3325840130901818
  0.1594367172223429  0.9502413053991499  0.5449239955816972
  0.1244829892145366  0.7973417314105218  0.6747999412905143
  0.0972187378105497  0.8487945679721836  0.0076441558403181
  0.1583272763192106  0.7500633043242031  0.3452999894302471
  0.1266676347800592  0.6021300371072001  0.4749635022970977
  0.4384382506210532  0.8989705666812227  0.9556846374919262
  0.2522385284043793  0.6024840278258337  0.3518762316487519
  0.0678363463621668  0.0985256558162084  0.5378763340887560
  0.0008957561244315  0.9991327650365482  0.0003487956372787
  0.2465971136360044  0.3960227212286755  0.1474778479639863
  0.3407688485611221  0.4465194577812260  0.3572378190720956
  0.6877457481977092  0.8970754288617508  0.7127127177470421
  0.2835981059135740  0.1501162522985122  0.6191449182184876
  0.7827731380511924  0.9477716966937869  0.9168860649144219
  0.5033841543557428  0.4051966999557727  0.9010979839363719
  0.6242251126949322  0.8002112855687444  0.1734073792820328
  0.3156977407137057  0.1015996137339029  0.2890477626133212
  0.9037224376593138  0.9492345260920340  0.7948297023143949
  0.9382268388823601  0.8996956872152116  0.4612433882597039
  0.5015577587982093  0.0011574485355337  0.4966173620068964
  0.6254336541409560  0.2009094240662677  0.5751791732422540
  0.6552018775398997  0.1497141689502852  0.2429652029306487
  0.9684396012195190  0.4494180128097502  0.7347499468448802
  0.9384391891914117  0.0973602179134405  0.6641771656661936
  0.0656921244734937  0.7038324091221492  0.1405591332233400
  0.2818675903427673  0.9504068394638744  0.4210656716981460
  0.3394085381551925  0.8605217778833039  0.7501758710647620
  0.1891337949342211  0.4956673496168023  0.8055632040861022
  0.3161025020652050  0.7047604988152328  0.8923669893803766
  0.0276504703179578  0.3486118764002664  0.0731489922998262
  0.4021230103446868  0.9494276748482926  0.2841352367764767
  0.0005600133190631  0.1986692383550053  0.2021154222590547
  0.3772635619465532  0.8031099433455459  0.4250551808805222
  0.1880497489971561  0.3069781638685373  0.6126573065654840
  0.5691163912501583  0.9017166013474412  0.8385054132367620
  0.6195642627703480  0.6026663245264618  0.9706784515825417
  0.3400838853043319  0.0458102303277825  0.9490387352341655
  0.4638634913726553  0.4520038582225649  0.2293963446293351
  0.4701968133121178  0.2594390999940878  0.0280287347228069
  0.5642281195943597  0.2992839626479344  0.2395514329572449
  0.6912042153696809  0.5004694377521316  0.3147340873049030
  0.5310975338010769  0.1474231627324870  0.3719537950544131
  0.7160653579885174  0.2496594632741073  0.7820539327624454
  0.6857039397997663  0.2966795377947654  0.1150199410147907
  0.6265070417739146  0.9952315353610824  0.3699873984530493
  0.7193695435666877  0.0504134876425332  0.5825265154769121
  0.9035673006310826  0.1483042087024600  0.9886109720166520
  0.9038643887409993  0.3551784377732478  0.1976086219113518
  0.0278248047239538  0.9457908901673588  0.6671962773965487
  0.0627597937374341  0.4953752224457191  0.9397661549969006
  0.0879708801572077  0.4475867153507944  0.6084391181515522
  0.3137917578152499  0.8987090048318860  0.0830489873357505
  0.4357072540907522  0.7045270440431278  0.7628244904563937
  0.4097585167348289  0.5500909961088030  0.8945206205788226
  0.3732619716714353  0.5948929688506531  0.2263710570515562
  0.5010082459671721  0.8033552981052202  0.3016816861138555
  0.4680197583786260  0.6445059603244850  0.4300891177728660
  0.4385660367956421  0.5035052835656695  0.5639319465873925
  0.2515528663706496  0.0023012866296405  0.7499301603735135
  0.6544287238532565  0.5521168075336371  0.6453669699125606
  0.7782120768521738  0.7495419983618552  0.7148904111628680
  0.3770330321555295  0.9986924742580123  0.6225065024067126
  0.6229066733605985  0.4047789390486298  0.7780378348272294
  0.8788374190322105  0.7994915357085889  0.9258195468443418
  0.7184391002923700  0.4499145915141360  0.9802180959425721
  0.5937739872034044  0.4529207118099664  0.1043319105979345
  0.9037914433259199  0.7482878125776397  0.5959692966130936
  0.9646423678218170  0.6511023277189925  0.9274066636339433
  0.6937950657012207  0.1018927246425938  0.9116203619774081
  0.5599191498048819  0.1002996325037013  0.0379678361124164
  0.8435151685322425  0.2441201067784521  0.6617369429235646
  0.8132639369614608  0.0921412560925921  0.7877997506653533
 
  0.00000000E+00  0.00000000E+00  0.00000000E+00
  0.00000000E+00  0.00000000E+00  0.00000000E+00
  0.00000000E+00  0.00000000E+00  0.00000000E+00
  0.00000000E+00  0.00000000E+00  0.00000000E+00
  0.00000000E+00  0.00000000E+00  0.00000000E+00
  0.00000000E+00  0.00000000E+00  0.00000000E+00
  0.00000000E+00  0.00000000E+00  0.00000000E+00
  0.00000000E+00  0.00000000E+00  0.00000000E+00
  0.00000000E+00  0.00000000E+00  0.00000000E+00
  0.00000000E+00  0.00000000E+00  0.00000000E+00
  0.00000000E+00  0.00000000E+00  0.00000000E+00
  0.00000000E+00  0.00000000E+00  0.00000000E+00
  0.00000000E+00  0.00000000E+00  0.00000000E+00
  0.00000000E+00  0.00000000E+00  0.00000000E+00
  0.00000000E+00  0.00000000E+00  0.00000000E+00
  0.00000000E+00  0.00000000E+00  0.00000000E+00
  0.00000000E+00  0.00000000E+00  0.00000000E+00
  0.00000000E+00  0.00000000E+00  0.00000000E+00
  0.00000000E+00  0.00000000E+00  0.00000000E+00
  0.00000000E+00  0.00000000E+00  0.00000000E+00
  0.00000000E+00  0.00000000E+00  0.00000000E+00
  0.00000000E+00  0.00000000E+00  0.00000000E+00
  0.00000000E+00  0.00000000E+00  0.00000000E+00
  0.00000000E+00  0.00000000E+00  0.00000000E+00
  0.00000000E+00  0.00000000E+00  0.00000000E+00
  0.00000000E+00  0.00000000E+00  0.00000000E+00
  0.00000000E+00  0.00000000E+00  0.00000000E+00
  0.00000000E+00  0.00000000E+00  0.00000000E+00
  0.00000000E+00  0.00000000E+00  0.00000000E+00
  0.00000000E+00  0.00000000E+00  0.00000000E+00
  0.00000000E+00  0.00000000E+00  0.00000000E+00
  0.00000000E+00  0.00000000E+00  0.00000000E+00
  0.00000000E+00  0.00000000E+00  0.00000000E+00
  0.00000000E+00  0.00000000E+00  0.00000000E+00
  0.00000000E+00  0.00000000E+00  0.00000000E+00
  0.00000000E+00  0.00000000E+00  0.00000000E+00
  0.00000000E+00  0.00000000E+00  0.00000000E+00
  0.00000000E+00  0.00000000E+00  0.00000000E+00
  0.00000000E+00  0.00000000E+00  0.00000000E+00
  0.00000000E+00  0.00000000E+00  0.00000000E+00
  0.00000000E+00  0.00000000E+00  0.00000000E+00
  0.00000000E+00  0.00000000E+00  0.00000000E+00
  0.00000000E+00  0.00000000E+00  0.00000000E+00
  0.00000000E+00  0.00000000E+00  0.00000000E+00
  0.00000000E+00  0.00000000E+00  0.00000000E+00
  0.00000000E+00  0.00000000E+00  0.00000000E+00
  0.00000000E+00  0.00000000E+00  0.00000000E+00
  0.00000000E+00  0.00000000E+00  0.00000000E+00
  0.00000000E+00  0.00000000E+00  0.00000000E+00
  0.00000000E+00  0.00000000E+00  0.00000000E+00
  0.00000000E+00  0.00000000E+00  0.00000000E+00
  0.00000000E+00  0.00000000E+00  0.00000000E+00
  0.00000000E+00  0.00000000E+00  0.00000000E+00
  0.00000000E+00  0.00000000E+00  0.00000000E+00
  0.00000000E+00  0.00000000E+00  0.00000000E+00
  0.00000000E+00  0.00000000E+00  0.00000000E+00
  0.00000000E+00  0.00000000E+00  0.00000000E+00
  0.00000000E+00  0.00000000E+00  0.00000000E+00
  0.00000000E+00  0.00000000E+00  0.00000000E+00
  0.00000000E+00  0.00000000E+00  0.00000000E+00
  0.00000000E+00  0.00000000E+00  0.00000000E+00
  0.00000000E+00  0.00000000E+00  0.00000000E+00
  0.00000000E+00  0.00000000E+00  0.00000000E+00
  0.00000000E+00  0.00000000E+00  0.00000000E+00
  0.00000000E+00  0.00000000E+00  0.00000000E+00
  0.00000000E+00  0.00000000E+00  0.00000000E+00
  0.00000000E+00  0.00000000E+00  0.00000000E+00
  0.00000000E+00  0.00000000E+00  0.00000000E+00
  0.00000000E+00  0.00000000E+00  0.00000000E+00
  0.00000000E+00  0.00000000E+00  0.00000000E+00
  0.00000000E+00  0.00000000E+00  0.00000000E+00
  0.00000000E+00  0.00000000E+00  0.00000000E+00
  0.00000000E+00  0.00000000E+00  0.00000000E+00
  0.00000000E+00  0.00000000E+00  0.00000000E+00
  0.00000000E+00  0.00000000E+00  0.00000000E+00
  0.00000000E+00  0.00000000E+00  0.00000000E+00
  0.00000000E+00  0.00000000E+00  0.00000000E+00
  0.00000000E+00  0.00000000E+00  0.00000000E+00
  0.00000000E+00  0.00000000E+00  0.00000000E+00
  0.00000000E+00  0.00000000E+00  0.00000000E+00
  0.00000000E+00  0.00000000E+00  0.00000000E+00
  0.00000000E+00  0.00000000E+00  0.00000000E+00
  0.00000000E+00  0.00000000E+00  0.00000000E+00
  0.00000000E+00  0.00000000E+00  0.00000000E+00
  0.00000000E+00  0.00000000E+00  0.00000000E+00
  0.00000000E+00  0.00000000E+00  0.00000000E+00
  0.00000000E+00  0.00000000E+00  0.00000000E+00
  0.00000000E+00  0.00000000E+00  0.00000000E+00
  0.00000000E+00  0.00000000E+00  0.00000000E+00
  0.00000000E+00  0.00000000E+00  0.00000000E+00
  0.00000000E+00  0.00000000E+00  0.00000000E+00
  0.00000000E+00  0.00000000E+00  0.00000000E+00
  0.00000000E+00  0.00000000E+00  0.00000000E+00
  0.00000000E+00  0.00000000E+00  0.00000000E+00
  0.00000000E+00  0.00000000E+00  0.00000000E+00
  0.00000000E+00  0.00000000E+00  0.00000000E+00
  0.00000000E+00  0.00000000E+00  0.00000000E+00
  0.00000000E+00  0.00000000E+00  0.00000000E+00
  0.00000000E+00  0.00000000E+00  0.00000000E+00
  0.00000000E+00  0.00000000E+00  0.00000000E+00
  0.00000000E+00  0.00000000E+00  0.00000000E+00
  0.00000000E+00  0.00000000E+00  0.00000000E+00
  0.00000000E+00  0.00000000E+00  0.00000000E+00
  0.00000000E+00  0.00000000E+00  0.00000000E+00
  0.00000000E+00  0.00000000E+00  0.00000000E+00
  0.00000000E+00  0.00000000E+00  0.00000000E+00
  0.00000000E+00  0.00000000E+00  0.00000000E+00
  0.00000000E+00  0.00000000E+00  0.00000000E+00
  0.00000000E+00  0.00000000E+00  0.00000000E+00
  0.00000000E+00  0.00000000E+00  0.00000000E+00
  0.00000000E+00  0.00000000E+00  0.00000000E+00
  0.00000000E+00  0.00000000E+00  0.00000000E+00
  0.00000000E+00  0.00000000E+00  0.00000000E+00
  0.00000000E+00  0.00000000E+00  0.00000000E+00
  0.00000000E+00  0.00000000E+00  0.00000000E+00
  0.00000000E+00  0.00000000E+00  0.00000000E+00
  0.00000000E+00  0.00000000E+00  0.00000000E+00
  0.00000000E+00  0.00000000E+00  0.00000000E+00
  0.00000000E+00  0.00000000E+00  0.00000000E+00
  0.00000000E+00  0.00000000E+00  0.00000000E+00
  0.00000000E+00  0.00000000E+00  0.00000000E+00
  0.00000000E+00  0.00000000E+00  0.00000000E+00
  0.00000000E+00  0.00000000E+00  0.00000000E+00
  0.00000000E+00  0.00000000E+00  0.00000000E+00
  0.00000000E+00  0.00000000E+00  0.00000000E+00
  0.00000000E+00  0.00000000E+00  0.00000000E+00
  0.00000000E+00  0.00000000E+00  0.00000000E+00
  0.00000000E+00  0.00000000E+00  0.00000000E+00
  0.00000000E+00  0.00000000E+00  0.00000000E+00
  0.00000000E+00  0.00000000E+00  0.00000000E+00
  0.00000000E+00  0.00000000E+00  0.00000000E+00
  0.00000000E+00  0.00000000E+00  0.00000000E+00
  0.00000000E+00  0.00000000E+00  0.00000000E+00
  0.00000000E+00  0.00000000E+00  0.00000000E+00
  0.00000000E+00  0.00000000E+00  0.00000000E+00
  0.00000000E+00  0.00000000E+00  0.00000000E+00
  0.00000000E+00  0.00000000E+00  0.00000000E+00
  0.00000000E+00  0.00000000E+00  0.00000000E+00
  0.00000000E+00  0.00000000E+00  0.00000000E+00
  0.00000000E+00  0.00000000E+00  0.00000000E+00
  0.00000000E+00  0.00000000E+00  0.00000000E+00
  0.00000000E+00  0.00000000E+00  0.00000000E+00
  0.00000000E+00  0.00000000E+00  0.00000000E+00
  0.00000000E+00  0.00000000E+00  0.00000000E+00
  0.00000000E+00  0.00000000E+00  0.00000000E+00
  0.00000000E+00  0.00000000E+00  0.00000000E+00
  0.00000000E+00  0.00000000E+00  0.00000000E+00
  0.00000000E+00  0.00000000E+00  0.00000000E+00
  0.00000000E+00  0.00000000E+00  0.00000000E+00
  0.00000000E+00  0.00000000E+00  0.00000000E+00
  0.00000000E+00  0.00000000E+00  0.00000000E+00
  0.00000000E+00  0.00000000E+00  0.00000000E+00
  0.00000000E+00  0.00000000E+00  0.00000000E+00
  0.00000000E+00  0.00000000E+00  0.00000000E+00
  0.00000000E+00  0.00000000E+00  0.00000000E+00
  0.00000000E+00  0.00000000E+00  0.00000000E+00
  0.00000000E+00  0.00000000E+00  0.00000000E+00
  0.00000000E+00  0.00000000E+00  0.00000000E+00
  0.00000000E+00  0.00000000E+00  0.00000000E+00
  0.00000000E+00  0.00000000E+00  0.00000000E+00
