Co3Cr_bcc                               
           1
     2.493789   -6.992176    0.019224
     0.019224   -6.992176    2.493789
    -5.017783    0.003950   -5.017783
   Co   Cr
  12   4
Direct 
   0.74878541  0.74878541  0.37432012
   0.25185178  0.25185178  0.12488586
   0.62589410  0.62589410  0.56480472
   0.87493935  0.87493935  0.68809267
   0.12676731  0.12676731  0.31086456
   0.37216148  0.37216148  0.43892009
   0.75003753  0.75003753  0.87501792
   0.00144276  0.00144276 -0.00097147
   0.24973324  0.24973324  0.62400781
   0.49975697  0.49975697  0.75056629
   0.12627784  0.12627784  0.81193628
   0.37368328  0.37368328  0.93351750
   0.00160246  0.00160246  0.50626429
   0.49848502  0.49848502  0.25242428
   0.62523901  0.62523901  0.06129655
   0.87334245  0.87334245  0.18405253
