NiFe3_bccsqs16_7525                     
   3.35000000000000     
     0.8497935692712939   -1.7000085211712619    0.0004207060035795
     0.0004207060035795   -1.7000085211712619    0.8497935692712939
    -1.7011932654818560   -0.0003822252279214   -1.7011932654818560
   Ni   Fe
     4    12
Direct
  0.0007897584814185  0.0007897584814185  0.5009718525876485
  0.5023556115087306  0.5023556115087306  0.2548070919637625
  0.6257800548145978  0.6257800548145978  0.0593461695311246
  0.8712312636643026  0.8712312636643026  0.1835767223541605
  0.7493724205058251  0.7493724205058251  0.3763536318915841
  0.2518468521072637  0.2518468521072637  0.1272116640302265
  0.6258202447192727  0.6258202447192727  0.5628376762037086
  0.8749937158231870  0.8749937158231870  0.6885276847104046
  0.1242262006578051  0.1242262006578051  0.3104129777163299
  0.3736776656442169  0.3736776656442169  0.4338558626600474
  0.7498877651132080  0.7498877651132080  0.8744833738977411
  0.9996502234321427  0.9996502234321427  0.0012535665971703
  0.2497563263953037  0.2497563263953037  0.6249659273169403
  0.4992065120172506  0.4992065120172506  0.7480867817159811
  0.1252536448825461  0.1252536448825461  0.8141878679128370
  0.3761517402329431  0.3761517402329431  0.9391211489103327
 
  0.00000000E+00  0.00000000E+00  0.00000000E+00
  0.00000000E+00  0.00000000E+00  0.00000000E+00
  0.00000000E+00  0.00000000E+00  0.00000000E+00
  0.00000000E+00  0.00000000E+00  0.00000000E+00
  0.00000000E+00  0.00000000E+00  0.00000000E+00
  0.00000000E+00  0.00000000E+00  0.00000000E+00
  0.00000000E+00  0.00000000E+00  0.00000000E+00
  0.00000000E+00  0.00000000E+00  0.00000000E+00
  0.00000000E+00  0.00000000E+00  0.00000000E+00
  0.00000000E+00  0.00000000E+00  0.00000000E+00
  0.00000000E+00  0.00000000E+00  0.00000000E+00
  0.00000000E+00  0.00000000E+00  0.00000000E+00
  0.00000000E+00  0.00000000E+00  0.00000000E+00
  0.00000000E+00  0.00000000E+00  0.00000000E+00
  0.00000000E+00  0.00000000E+00  0.00000000E+00
  0.00000000E+00  0.00000000E+00  0.00000000E+00
