FeCr3_bccsqs16_7525                     
   3.35000000000000     
     0.8482445829053699   -1.6915397329016000   -0.0008000898121647
    -0.0008000898121647   -1.6915397329016000    0.8482445829053699
    -1.6884782360819324    0.0032031679495316   -1.6884782360819324
   Fe   Cr
     4    12
Direct
  0.0009733141954196  0.0009733141954196  0.5023581910359753
  0.5019863293581406  0.5019863293581406  0.2518118422069428
  0.6246050488883452  0.6246050488883452  0.0598944013463310
  0.8749965530873405  0.8749965530873405  0.1865751915428953
  0.7503011502555477  0.7503011502555477  0.3777754514217910
  0.2511324016238841  0.2511324016238841  0.1279477753284198
  0.6273817736348857  0.6273817736348857  0.5658230758390953
  0.8753712672416967  0.8753712672416967  0.6893780594922850
  0.1250698922032285  0.1250698922032285  0.3075394822481002
  0.3728043273007103  0.3728043273007103  0.4341352932828994
  0.7493369941872782  0.7493369941872782  0.8736572305519709
 -0.0013767391314263 -0.0013767391314263 -0.0031114829523499
  0.2477970957238602  0.2477970957238602  0.6240721254015036
  0.4969515018614312  0.4969515018614312  0.7440120661246732
  0.1267394322909994  0.1267394322909994  0.8199496845234983
  0.3759296572786582  0.3759296572786582  0.9381816126059688
 
  0.00000000E+00  0.00000000E+00  0.00000000E+00
  0.00000000E+00  0.00000000E+00  0.00000000E+00
  0.00000000E+00  0.00000000E+00  0.00000000E+00
  0.00000000E+00  0.00000000E+00  0.00000000E+00
  0.00000000E+00  0.00000000E+00  0.00000000E+00
  0.00000000E+00  0.00000000E+00  0.00000000E+00
  0.00000000E+00  0.00000000E+00  0.00000000E+00
  0.00000000E+00  0.00000000E+00  0.00000000E+00
  0.00000000E+00  0.00000000E+00  0.00000000E+00
  0.00000000E+00  0.00000000E+00  0.00000000E+00
  0.00000000E+00  0.00000000E+00  0.00000000E+00
  0.00000000E+00  0.00000000E+00  0.00000000E+00
  0.00000000E+00  0.00000000E+00  0.00000000E+00
  0.00000000E+00  0.00000000E+00  0.00000000E+00
  0.00000000E+00  0.00000000E+00  0.00000000E+00
  0.00000000E+00  0.00000000E+00  0.00000000E+00
