CrPd_fccsqs16                           
   4.00000000000000     
     0.9886842270780947   -0.4535089751426701   -0.4393511673600892
     0.0475710446194175    1.0098382727388067   -0.8864656959253924
     1.0101116585640566    1.4828563237739514    1.2496015407958758
   Cr   Pd
     8     8
Direct
  0.3086770260322344  0.3612287289692943  0.2460633673503617
  0.2861400888739016  0.7997484119817042  0.2224523620595051
  0.8289371402266661  0.5863343421934124  0.2508163953533081
  0.2331849228659230 -0.0588701446859090  0.7820057351561593
  0.0168150771340770  0.3088701446859090  0.4679942648438403
  0.4210628597733345  0.6636656578065874 -0.0008163953533083
 -0.0361400888739015  0.4502515880182954  0.0275476379404949
 -0.0586770260322341 -0.1112287289692941  0.0039366326496382
  0.5185883566575170  0.5370998759825608  0.4863694904182640
  0.8148564235944655  0.0868584958595858  0.2443205812357894
  0.5078045053214996  0.0441976763564969  0.4922810133216364
  0.2273012483513804  0.4612299182330722  0.7495970769406349
  0.0226987516486195  0.7887700817669275  0.5004029230593653
  0.7421954946785012  0.2058023236435030  0.7577189866783633
  0.7314116433424841  0.7129001240174392  0.7636305095817354
  0.4351435764055350  0.1631415041404141  0.0056794187642106
 
  0.00000000E+00  0.00000000E+00  0.00000000E+00
  0.00000000E+00  0.00000000E+00  0.00000000E+00
  0.00000000E+00  0.00000000E+00  0.00000000E+00
  0.00000000E+00  0.00000000E+00  0.00000000E+00
  0.00000000E+00  0.00000000E+00  0.00000000E+00
  0.00000000E+00  0.00000000E+00  0.00000000E+00
  0.00000000E+00  0.00000000E+00  0.00000000E+00
  0.00000000E+00  0.00000000E+00  0.00000000E+00
  0.00000000E+00  0.00000000E+00  0.00000000E+00
  0.00000000E+00  0.00000000E+00  0.00000000E+00
  0.00000000E+00  0.00000000E+00  0.00000000E+00
  0.00000000E+00  0.00000000E+00  0.00000000E+00
  0.00000000E+00  0.00000000E+00  0.00000000E+00
  0.00000000E+00  0.00000000E+00  0.00000000E+00
  0.00000000E+00  0.00000000E+00  0.00000000E+00
  0.00000000E+00  0.00000000E+00  0.00000000E+00
