CrMn3_bccsqs16_7525                     
   3.35000000000000     
     0.8369554138812598   -1.6842706175803339    0.0028233476097140
     0.0028233476097140   -1.6842706175803339    0.8369554138812598
    -1.6808222991117689   -0.0006582021131565   -1.6808222991117689
   Cr   Mn
     4    12
Direct
 -0.0003979655561555 -0.0003979655561555  0.5107557630784562
  0.5024822623039201  0.5024822623039201  0.2472430754569379
  0.6222686174860335  0.6222686174860335  0.0666156124421720
  0.8751201789393643  0.8751201789393643  0.1800327659715659
  0.7530091429578497  0.7530091429578497  0.3742011689364711
  0.2509042087444139  0.2509042087444139  0.1360038747326975
  0.6226246067623028  0.6226246067623028  0.5586323669716040
  0.8652454191989301  0.8652454191989301  0.6989715777714735
  0.1174870681958181  0.1174870681958181  0.3175401373776797
  0.3817909070627241  0.3817909070627241  0.4330711818139931
  0.7440797554887424  0.7440797554887424  0.8882448532240792
  0.0069417240440049  0.0069417240440049  0.9952797005998937
  0.2566765830791155  0.2566765830791155  0.6061617900644949
  0.5055109304349631  0.5055109304349631  0.7597508138005327
  0.1301452659365699  0.1301452659365699  0.7975856534685436
  0.3661112949214007  0.3661112949214007  0.9299096642893901
 
  0.00000000E+00  0.00000000E+00  0.00000000E+00
  0.00000000E+00  0.00000000E+00  0.00000000E+00
  0.00000000E+00  0.00000000E+00  0.00000000E+00
  0.00000000E+00  0.00000000E+00  0.00000000E+00
  0.00000000E+00  0.00000000E+00  0.00000000E+00
  0.00000000E+00  0.00000000E+00  0.00000000E+00
  0.00000000E+00  0.00000000E+00  0.00000000E+00
  0.00000000E+00  0.00000000E+00  0.00000000E+00
  0.00000000E+00  0.00000000E+00  0.00000000E+00
  0.00000000E+00  0.00000000E+00  0.00000000E+00
  0.00000000E+00  0.00000000E+00  0.00000000E+00
  0.00000000E+00  0.00000000E+00  0.00000000E+00
  0.00000000E+00  0.00000000E+00  0.00000000E+00
  0.00000000E+00  0.00000000E+00  0.00000000E+00
  0.00000000E+00  0.00000000E+00  0.00000000E+00
  0.00000000E+00  0.00000000E+00  0.00000000E+00
