CrMn_bccsqs16_5050                      
   3.40000000000000     
    -0.4143098465473694   -1.2423339540645835   -2.0671785666891633
    -0.4122226658875250    2.0666888383855198    1.2422092400183540
     1.2442682406880898    0.4149259313430665   -0.4141902610030201
   Cr   Mn
     8     8
Direct
 -0.0015232403146043  0.4978901686286723  0.4919380386519742
  0.4980176968496989 -0.0005955875507503  0.4983651627388153
  0.2506293322413406  0.0041199781803619  0.7528047832592989
  0.0019823031503010  0.2505955875507503  0.7516348372611844
  0.2493706677586594  0.2458800218196381  0.4971952167407012
  0.7415113187857856 -0.0079969958948257  0.2484045542180104
  0.5015232403146044  0.7521098313713278  0.7580619613480259
  0.7584886812142144  0.2579969958948258  0.0015954457819896
  0.4924412318240227  0.2447203231023781  0.2439621917981322
  0.2467634470450220  0.4920336521992613  0.2560484561422735
  0.7402179550970858  0.7442526635473206  0.4955559974437234
 -0.0099846076067922  0.7403880481391730  0.2647672735892649
  0.7597820449029142  0.5057473364526794  0.7544440025562769
  0.0075587681759773  0.0052796768976219  0.0060378082018678
  0.5099846076067922  0.5096119518608270 -0.0147672735892648
  0.2532365529549780  0.7579663478007390 -0.0060484561422736
 
  0.00000000E+00  0.00000000E+00  0.00000000E+00
  0.00000000E+00  0.00000000E+00  0.00000000E+00
  0.00000000E+00  0.00000000E+00  0.00000000E+00
  0.00000000E+00  0.00000000E+00  0.00000000E+00
  0.00000000E+00  0.00000000E+00  0.00000000E+00
  0.00000000E+00  0.00000000E+00  0.00000000E+00
  0.00000000E+00  0.00000000E+00  0.00000000E+00
  0.00000000E+00  0.00000000E+00  0.00000000E+00
  0.00000000E+00  0.00000000E+00  0.00000000E+00
  0.00000000E+00  0.00000000E+00  0.00000000E+00
  0.00000000E+00  0.00000000E+00  0.00000000E+00
  0.00000000E+00  0.00000000E+00  0.00000000E+00
  0.00000000E+00  0.00000000E+00  0.00000000E+00
  0.00000000E+00  0.00000000E+00  0.00000000E+00
  0.00000000E+00  0.00000000E+00  0.00000000E+00
  0.00000000E+00  0.00000000E+00  0.00000000E+00
