Ni3Co_bccsqs16_7525                     
   1.00000000000000     
     2.4888998590183213   -7.0264101466017177    0.0040689262246194
     0.0040689262246193   -7.0264101466017177    2.4888998590183213
    -4.9713097713558057   -0.0044446476295255   -4.9713097713558057
   Ni   Co
    12     4
Direct
  0.7499029993006104  0.7499029993006104  0.3734321468589946
  0.2497350750138608  0.2497350750138608  0.1250849431776145
  0.6240448109600434  0.6240448109600434  0.5615767893291437
  0.8756870341799453  0.8756870341799453  0.6871143055959716
  0.1247207222681598  0.1247207222681598  0.3116997348631378
  0.3750249770127244  0.3750249770127244  0.4361377890834895
  0.7500542212037311  0.7500542212037311  0.8763893559158058
  0.0003985458286828  0.0003985458286828  0.0016349273390613
  0.2503936719974383  0.2503936719974383  0.6250333482973356
  0.4999792487821779  0.4999792487821779  0.7493106267491412
  0.1250280860388706  0.1250280860388706  0.8132287552677225
  0.3747211489702286  0.3747211489702286  0.9390693771387428
  0.9996992513641856  0.9996992513641856  0.4973235498217453
  0.4993801817909718  0.4993801817909718  0.2509612351405760
  0.6239242203826578  0.6239242203826578  0.0627388983879912
  0.8773058049057186  0.8773058049057186  0.1892642170335338
 
  0.00000000E+00  0.00000000E+00  0.00000000E+00
  0.00000000E+00  0.00000000E+00  0.00000000E+00
  0.00000000E+00  0.00000000E+00  0.00000000E+00
  0.00000000E+00  0.00000000E+00  0.00000000E+00
  0.00000000E+00  0.00000000E+00  0.00000000E+00
  0.00000000E+00  0.00000000E+00  0.00000000E+00
  0.00000000E+00  0.00000000E+00  0.00000000E+00
  0.00000000E+00  0.00000000E+00  0.00000000E+00
  0.00000000E+00  0.00000000E+00  0.00000000E+00
  0.00000000E+00  0.00000000E+00  0.00000000E+00
  0.00000000E+00  0.00000000E+00  0.00000000E+00
  0.00000000E+00  0.00000000E+00  0.00000000E+00
  0.00000000E+00  0.00000000E+00  0.00000000E+00
  0.00000000E+00  0.00000000E+00  0.00000000E+00
  0.00000000E+00  0.00000000E+00  0.00000000E+00
  0.00000000E+00  0.00000000E+00  0.00000000E+00
