NiCr_fccsqs16                           
   4.00000000000000     
     0.9126299810760672   -0.4646363080429706   -0.4226798954638554
     0.0085879937225813    0.9299596966124308   -0.8295643372418104
     0.8902569784868722    1.3906292751479796    1.2293834839485624
   Ni   Cr
     8     8
Direct
  0.2556778057497078  0.2359198579235549  0.2504058263395764
  0.2467006029100358  0.7410600518214039  0.2520764830968040
  0.7467461645153773  0.4901292138090720  0.2473539702530411
  0.2551092924108238  0.0247947988156596  0.7552869228233454
 -0.0051092924108238  0.2252052011843404  0.4947130771766549
  0.5032538354846225  0.7598707861909278  0.0026460297469588
  0.0032993970899643  0.5089399481785961 -0.0020764830968039
 -0.0056778057497077  0.0140801420764451 -0.0004058263395763
  0.4976428135006465  0.4665618604071654  0.4957600336990490
  0.7547872805931216 -0.0178326790082546  0.2599039762999976
  0.4741546444909063 -0.0410053327772288  0.5090920017073393
  0.2774890770946128  0.5331402681781087  0.7480790598395711
 -0.0274890770946128  0.7168597318218916  0.5019209401604287
  0.7758453555090937  0.2910053327772289  0.7409079982926606
  0.7523571864993533  0.7834381395928349  0.7542399663009510
  0.4952127194068782  0.2678326790082546 -0.0099039762999977
 
  0.00000000E+00  0.00000000E+00  0.00000000E+00
  0.00000000E+00  0.00000000E+00  0.00000000E+00
  0.00000000E+00  0.00000000E+00  0.00000000E+00
  0.00000000E+00  0.00000000E+00  0.00000000E+00
  0.00000000E+00  0.00000000E+00  0.00000000E+00
  0.00000000E+00  0.00000000E+00  0.00000000E+00
  0.00000000E+00  0.00000000E+00  0.00000000E+00
  0.00000000E+00  0.00000000E+00  0.00000000E+00
  0.00000000E+00  0.00000000E+00  0.00000000E+00
  0.00000000E+00  0.00000000E+00  0.00000000E+00
  0.00000000E+00  0.00000000E+00  0.00000000E+00
  0.00000000E+00  0.00000000E+00  0.00000000E+00
  0.00000000E+00  0.00000000E+00  0.00000000E+00
  0.00000000E+00  0.00000000E+00  0.00000000E+00
  0.00000000E+00  0.00000000E+00  0.00000000E+00
  0.00000000E+00  0.00000000E+00  0.00000000E+00
