FeMn_bccsqs16_5050                      
   3.40000000000000     
    -0.4127763921776660   -1.2300856980817323   -2.0816177767494661
    -0.4203280647975820    2.0510085223911081    1.2499589179360504
     1.2526568105839491    0.4100619832490052   -0.4192113500746745
   Fe   Mn
     8     8
Direct
  0.0015374706198759  0.5006209918413291  0.5028132508128687
  0.4993338808592729  0.0006033161195399  0.5034160427249850
  0.2579020103298226  0.0101767838470205  0.7532057505407119
  0.0006661191407271  0.2493966838804599  0.7465839572750150
  0.2420979896701775  0.2398232161529795  0.4967942494592884
  0.7477237071813970 -0.0030168939527737  0.2478151359717892
  0.4984625293801238  0.7493790081586711  0.7471867491871313
  0.7522762928186030  0.2530168939527737  0.0021848640282108
  0.5055088505772382  0.2566524193280283  0.2514561771533247
  0.2491511341835421  0.4965593382701944  0.2442114885116105
  0.7414744631139060  0.7403650433158599  0.4992203868842254
  0.0025036430858259  0.7542180410807334  0.2470061460738137
  0.7585255368860940  0.5096349566841401  0.7507796131157746
 -0.0055088505772381 -0.0066524193280282 -0.0014561771533247
  0.4974963569141740  0.4957819589192666  0.0029938539261863
  0.2508488658164578  0.7534406617298055  0.0057885114883895
 
  0.00000000E+00  0.00000000E+00  0.00000000E+00
  0.00000000E+00  0.00000000E+00  0.00000000E+00
  0.00000000E+00  0.00000000E+00  0.00000000E+00
  0.00000000E+00  0.00000000E+00  0.00000000E+00
  0.00000000E+00  0.00000000E+00  0.00000000E+00
  0.00000000E+00  0.00000000E+00  0.00000000E+00
  0.00000000E+00  0.00000000E+00  0.00000000E+00
  0.00000000E+00  0.00000000E+00  0.00000000E+00
  0.00000000E+00  0.00000000E+00  0.00000000E+00
  0.00000000E+00  0.00000000E+00  0.00000000E+00
  0.00000000E+00  0.00000000E+00  0.00000000E+00
  0.00000000E+00  0.00000000E+00  0.00000000E+00
  0.00000000E+00  0.00000000E+00  0.00000000E+00
  0.00000000E+00  0.00000000E+00  0.00000000E+00
  0.00000000E+00  0.00000000E+00  0.00000000E+00
  0.00000000E+00  0.00000000E+00  0.00000000E+00
