Ni3Cr_bccsqs16_7525                     
   3.35000000000000     
     0.7534386436780223   -2.0774873813973600    0.0049541290276755
     0.0049541290276755   -2.0774873813973600    0.7534386436780223
    -1.5059346922863017    0.0037585316820171   -1.5059346922863017
   Ni   Cr
    12     4
Direct
  0.7487953277554315  0.7487953277554315  0.3729506759071732
  0.2501499719693437  0.2501499719693437  0.1242900172762541
  0.6217489090323378  0.6217489090323378  0.5598225222050655
  0.8759568936660275  0.8759568936660275  0.6863781873556285
  0.1247523952553336  0.1247523952553336  0.3104231893669039
  0.3745300576972125  0.3745300576972126  0.4388060779653222
  0.7503555584277719  0.7503555584277719  0.8746196694096715
  0.0011145170466466  0.0011145170466466  0.0012708754970842
  0.2499748954986025  0.2499748954986025  0.6237055346095126
  0.5002472262053588  0.5002472262053588  0.7514327803663287
  0.1259716165750805  0.1259716165750805  0.8133521900008250
  0.3740216522295366  0.3740216522295366  0.9366084310212827
 -0.0013200500394536 -0.0013200500394536  0.5050233096392864
  0.4991730828989674  0.4991730828989674  0.2488434085017655
  0.6258060382275848  0.6258060382275848  0.0610241331798814
  0.8787219075542171  0.8787219075542172  0.1914489976980143
 
  0.00000000E+00  0.00000000E+00  0.00000000E+00
  0.00000000E+00  0.00000000E+00  0.00000000E+00
  0.00000000E+00  0.00000000E+00  0.00000000E+00
  0.00000000E+00  0.00000000E+00  0.00000000E+00
  0.00000000E+00  0.00000000E+00  0.00000000E+00
  0.00000000E+00  0.00000000E+00  0.00000000E+00
  0.00000000E+00  0.00000000E+00  0.00000000E+00
  0.00000000E+00  0.00000000E+00  0.00000000E+00
  0.00000000E+00  0.00000000E+00  0.00000000E+00
  0.00000000E+00  0.00000000E+00  0.00000000E+00
  0.00000000E+00  0.00000000E+00  0.00000000E+00
  0.00000000E+00  0.00000000E+00  0.00000000E+00
  0.00000000E+00  0.00000000E+00  0.00000000E+00
  0.00000000E+00  0.00000000E+00  0.00000000E+00
  0.00000000E+00  0.00000000E+00  0.00000000E+00
  0.00000000E+00  0.00000000E+00  0.00000000E+00
