FePd3_fccsqs16                          
   3.50000000000000     
     0.5529496858124233    0.5570230378498092   -1.1070354622052527
     0.0067500067727775   -1.6717531709969284   -0.5504606497887802
    -2.2144174565153585    0.5662189474977609   -0.5502538510282499
   Fe   Pd
     4    12
Direct
  0.7536367562405472  0.3110436295395908  0.1872095753013282
  0.2406946923143960  0.4427450389889812  0.0626840685512301
  0.0105987781403656  0.7516106423441556  0.2495305603214785
  0.7475604455057163  0.0566694886361991  0.4420722292422975
  0.5108591697879893  0.8813732035057875  0.1340196326621734
  0.2478562619007485  0.1866796039662128  0.3074471373627359
 -0.0045405291553456  0.4910900720740548  0.4875238676809828
  0.5080852309775411  0.6229646250496382  0.3622004711056309
  0.5032094082780955  0.3694910342246089  0.6204537156078499
  0.7468680553022820  0.8125105144301692  0.6849775733910101
 -0.0016945977485419  0.2512958304088085  0.7487696528967901
  0.2431651898227761  0.9328928202691927  0.5522004952714722
  0.7530019960157623  0.5604917867979744  0.9545870761908496
  0.2496724014702509  0.6856276224251877  0.8173297419789967
  0.4945943048782336  0.1331318550830312  0.8843242663520386
 -0.0035675637308172  0.0103822322564076  0.0046699360831356
 
  0.00000000E+00  0.00000000E+00  0.00000000E+00
  0.00000000E+00  0.00000000E+00  0.00000000E+00
  0.00000000E+00  0.00000000E+00  0.00000000E+00
  0.00000000E+00  0.00000000E+00  0.00000000E+00
  0.00000000E+00  0.00000000E+00  0.00000000E+00
  0.00000000E+00  0.00000000E+00  0.00000000E+00
  0.00000000E+00  0.00000000E+00  0.00000000E+00
  0.00000000E+00  0.00000000E+00  0.00000000E+00
  0.00000000E+00  0.00000000E+00  0.00000000E+00
  0.00000000E+00  0.00000000E+00  0.00000000E+00
  0.00000000E+00  0.00000000E+00  0.00000000E+00
  0.00000000E+00  0.00000000E+00  0.00000000E+00
  0.00000000E+00  0.00000000E+00  0.00000000E+00
  0.00000000E+00  0.00000000E+00  0.00000000E+00
  0.00000000E+00  0.00000000E+00  0.00000000E+00
  0.00000000E+00  0.00000000E+00  0.00000000E+00
