Fe3Cr_bccsqs16_7525                     
   3.35000000000000     
     0.8468763032262900   -1.6995131170941979    0.0021132558885154
     0.0021132558885154   -1.6995131170941979    0.8468763032262900
    -1.6905048315119837    0.0037476449744065   -1.6905048315119837
   Fe   Cr
    12     4
Direct
  0.7484961278619097  0.7484961278619097  0.3728955908297052
  0.2513710156707246  0.2513710156707246  0.1259059429572822
  0.6231629674405418  0.6231629674405418  0.5601345831433904
  0.8743462008251092  0.8743462008251092  0.6868260878179252
  0.1263566755085961  0.1263566755085961  0.3129322768176277
  0.3738029218897138  0.3738029218897138  0.4380410721198859
  0.7498707939620776  0.7498707939620776  0.8768693166794818
  0.0013624917547145  0.0013624917547145  0.0016291994832145
  0.2492822615719249  0.2492822615719249  0.6249168393431882
  0.4998048762306309  0.4998048762306309  0.7501085453862576
  0.1248033701994744  0.1248033701994744  0.8124131340700412
  0.3745861504461770  0.3745861504461770  0.9362799223357405
 -0.0019102159893322 -0.0019102159893322  0.4971835893636943
  0.4995644583776891  0.4995644583776891  0.2479982584026375
  0.6233899051742363  0.6233899051742363  0.0618219407835731
  0.8817099990758124  0.8817099990758124  0.1940437004663554
 
  0.00000000E+00  0.00000000E+00  0.00000000E+00
  0.00000000E+00  0.00000000E+00  0.00000000E+00
  0.00000000E+00  0.00000000E+00  0.00000000E+00
  0.00000000E+00  0.00000000E+00  0.00000000E+00
  0.00000000E+00  0.00000000E+00  0.00000000E+00
  0.00000000E+00  0.00000000E+00  0.00000000E+00
  0.00000000E+00  0.00000000E+00  0.00000000E+00
  0.00000000E+00  0.00000000E+00  0.00000000E+00
  0.00000000E+00  0.00000000E+00  0.00000000E+00
  0.00000000E+00  0.00000000E+00  0.00000000E+00
  0.00000000E+00  0.00000000E+00  0.00000000E+00
  0.00000000E+00  0.00000000E+00  0.00000000E+00
  0.00000000E+00  0.00000000E+00  0.00000000E+00
  0.00000000E+00  0.00000000E+00  0.00000000E+00
  0.00000000E+00  0.00000000E+00  0.00000000E+00
  0.00000000E+00  0.00000000E+00  0.00000000E+00
