Co3Pd_bccsqs16_7525                     
   3.35000000000000     
     0.7707428740073733   -2.1697868717468145    0.0000299231832621
     0.0000299231832621   -2.1697868717468145    0.7707428740073733
    -1.5367034876119545   -0.0035597748212178   -1.5367034876119545
   Co   Pd
    12     4
Direct
  0.7499322363075213  0.7499322363075213  0.3858871570167585
  0.2497552744604773  0.2497552744604773  0.1273301437772490
  0.6314880946582613  0.6314880946582613  0.5706402798297128
  0.8706491589860641  0.8706491589860641  0.6898075034460845
  0.1342402003240218  0.1342402003240218  0.3256863576601031
  0.3677219609308478  0.3677219609308478  0.4494979860726084
  0.7500282886648127  0.7500282886648127  0.8610777057371781
 -0.0044397611764227 -0.0044397611764227 -0.0224864190494932
  0.2500504297197162  0.2500504297197162  0.6260653394915418
  0.4951101059242934  0.4951101059242934  0.7557726253436271
  0.1311860773907116  0.1311860773907116  0.8106741401707176
  0.3721128081573111  0.3721128081573111  0.9225134951560472
  0.0017542686979847  0.0017542686979847  0.5146224839212334
  0.5028171086862643  0.5028171086862643  0.2461916107964892
  0.6290302110721370  0.6290302110721370  0.0566641287722379
  0.8685635371959980  0.8685635371959980  0.1800554618579053
 
  0.00000000E+00  0.00000000E+00  0.00000000E+00
  0.00000000E+00  0.00000000E+00  0.00000000E+00
  0.00000000E+00  0.00000000E+00  0.00000000E+00
  0.00000000E+00  0.00000000E+00  0.00000000E+00
  0.00000000E+00  0.00000000E+00  0.00000000E+00
  0.00000000E+00  0.00000000E+00  0.00000000E+00
  0.00000000E+00  0.00000000E+00  0.00000000E+00
  0.00000000E+00  0.00000000E+00  0.00000000E+00
  0.00000000E+00  0.00000000E+00  0.00000000E+00
  0.00000000E+00  0.00000000E+00  0.00000000E+00
  0.00000000E+00  0.00000000E+00  0.00000000E+00
  0.00000000E+00  0.00000000E+00  0.00000000E+00
  0.00000000E+00  0.00000000E+00  0.00000000E+00
  0.00000000E+00  0.00000000E+00  0.00000000E+00
  0.00000000E+00  0.00000000E+00  0.00000000E+00
  0.00000000E+00  0.00000000E+00  0.00000000E+00
