FeCr3_fccsqs16                          
   3.50000000000000     
     0.5752027250578299    0.5737006192666546   -0.8118241518465121
     0.0018068084416134   -1.7125020402495654   -0.3992083663844804
    -2.2930088149981365    0.5717822973133386   -0.4093370982190280
   Fe   Cr
     4    12
Direct
  0.7462207841563071  0.2999491098344217  0.1918521311369500
  0.2550205997768285  0.4495599248282056  0.0613532042404003
  0.0018289304574824  0.7511591305620609  0.2519771600510974
  0.7438345864052132  0.0553003701139001  0.4318472173166244
  0.4959706563889186  0.8736506379165926  0.1186261882766390
  0.2543035159640335  0.1964501827021162  0.3118819944702588
  0.0046652294134909  0.5068367695189020  0.5022223728919814
  0.4951038372590819  0.6153460814718756  0.3745011687326640
  0.4947762137412470  0.3683562939555448  0.6214294324828172
  0.7522218186895524  0.8157303217636569  0.6889933689822753
 -0.0006884087746679  0.2493414700415976  0.7493676729853592
  0.2512559458353295  0.9375943695914327  0.5647337787437907
  0.7477287896364917  0.5590159754386950  0.9367986257394596
  0.2505327762267744  0.6881247608773869  0.8131077382692474
  0.5051598021073279  0.1322576975079943  0.8784129920693656
  0.0020649227165906  0.0013269038756179  0.0028949536110693
 
  0.00000000E+00  0.00000000E+00  0.00000000E+00
  0.00000000E+00  0.00000000E+00  0.00000000E+00
  0.00000000E+00  0.00000000E+00  0.00000000E+00
  0.00000000E+00  0.00000000E+00  0.00000000E+00
  0.00000000E+00  0.00000000E+00  0.00000000E+00
  0.00000000E+00  0.00000000E+00  0.00000000E+00
  0.00000000E+00  0.00000000E+00  0.00000000E+00
  0.00000000E+00  0.00000000E+00  0.00000000E+00
  0.00000000E+00  0.00000000E+00  0.00000000E+00
  0.00000000E+00  0.00000000E+00  0.00000000E+00
  0.00000000E+00  0.00000000E+00  0.00000000E+00
  0.00000000E+00  0.00000000E+00  0.00000000E+00
  0.00000000E+00  0.00000000E+00  0.00000000E+00
  0.00000000E+00  0.00000000E+00  0.00000000E+00
  0.00000000E+00  0.00000000E+00  0.00000000E+00
  0.00000000E+00  0.00000000E+00  0.00000000E+00
