FeCo_fccsqs16                           
   4.00000000000000     
     1.0021879595646275   -0.3534657850499984   -0.5026501538735972
    -0.0001039169055649    0.7095978422611305   -1.0018327006559640
     0.9975145683734430    1.0619914666441881    1.5049758153454325
   Fe   Co
     8     8
Direct
  0.2523539501364435  0.2505415790476248  0.2501603340855519
  0.2486984192762874  0.7519766008945777  0.2521884881267372
  0.7507075704917129  0.5016063882528230  0.2507494244371152
  0.2514482998591979  0.9970235311870803  0.7487924080469294
  0.9985517001408094  0.2529764688129196  0.5012075919530706
  0.4992924295082942  0.7483936117471770  0.9992505755628847
  0.0013015807237126  0.4980233991054221  0.9978115118732629
  0.9976460498635565  0.9994584209523752  0.9998396659144484
  0.5063557690812461  0.4940744299844611  0.4973910923201063
  0.7506658819373695  0.0001768202083406  0.2502534896084858
  0.4929315309114458  0.9988320265884960  0.5028388675525904
  0.2514765812877975  0.4982484571124289  0.7492247537471997
  0.9985234187122025  0.7517515428875711  0.5007752462528003
  0.7570684690885543  0.2511679734115041  0.7471611324474096
  0.7436442309187539  0.7559255700155391  0.7526089076798937
  0.4993341180626305  0.2498231797916594  0.9997465103915141
 
  0.00000000E+00  0.00000000E+00  0.00000000E+00
  0.00000000E+00  0.00000000E+00  0.00000000E+00
  0.00000000E+00  0.00000000E+00  0.00000000E+00
  0.00000000E+00  0.00000000E+00  0.00000000E+00
  0.00000000E+00  0.00000000E+00  0.00000000E+00
  0.00000000E+00  0.00000000E+00  0.00000000E+00
  0.00000000E+00  0.00000000E+00  0.00000000E+00
  0.00000000E+00  0.00000000E+00  0.00000000E+00
  0.00000000E+00  0.00000000E+00  0.00000000E+00
  0.00000000E+00  0.00000000E+00  0.00000000E+00
  0.00000000E+00  0.00000000E+00  0.00000000E+00
  0.00000000E+00  0.00000000E+00  0.00000000E+00
  0.00000000E+00  0.00000000E+00  0.00000000E+00
  0.00000000E+00  0.00000000E+00  0.00000000E+00
  0.00000000E+00  0.00000000E+00  0.00000000E+00
  0.00000000E+00  0.00000000E+00  0.00000000E+00
