FeCr_bccsqs16_5050                      
   3.40000000000000     
    -0.4125574203215009   -1.2530057773411074   -2.0735023955889016
    -0.4186063369239764    2.0858329192873351    1.2468009665230646
     1.2520170491838203    0.4175403735898631   -0.4174840119894020
   Fe   Cr
     8     8
Direct
 -0.0009396459712985  0.5006833436438809  0.5013467123219221
  0.5003462700042386 -0.0002322900067201  0.5016658915602342
  0.2515707928077833  0.0004434952097800  0.7480727142214912
 -0.0003462700042389  0.2502322900067201  0.7483341084397658
  0.2484292071922166  0.2495565047902200  0.5019272857785088
  0.7519373066636573  0.0011217092848651  0.2499740364851653
  0.5009396459712981  0.7493166563561191  0.7486532876780779
  0.7480626933363427  0.2488782907151349  0.0000259635148347
  0.5056546065271044  0.2573511164686264  0.2531541940903053
  0.2485260087703657  0.4997146244988493  0.2502830266412761
  0.7560310464556406  0.7521506789274637  0.5013616101959720
  0.0046040844529034  0.7546549460453190  0.2429226661963224
  0.7439689535443594  0.4978493210725362  0.7486383898040279
 -0.0056546065271044 -0.0073511164686264 -0.0031541940903053
  0.4953959155470966  0.4953450539546813  0.0070773338036776
  0.2514739912296344  0.7502853755011508 -0.0002830266412761
 
  0.00000000E+00  0.00000000E+00  0.00000000E+00
  0.00000000E+00  0.00000000E+00  0.00000000E+00
  0.00000000E+00  0.00000000E+00  0.00000000E+00
  0.00000000E+00  0.00000000E+00  0.00000000E+00
  0.00000000E+00  0.00000000E+00  0.00000000E+00
  0.00000000E+00  0.00000000E+00  0.00000000E+00
  0.00000000E+00  0.00000000E+00  0.00000000E+00
  0.00000000E+00  0.00000000E+00  0.00000000E+00
  0.00000000E+00  0.00000000E+00  0.00000000E+00
  0.00000000E+00  0.00000000E+00  0.00000000E+00
  0.00000000E+00  0.00000000E+00  0.00000000E+00
  0.00000000E+00  0.00000000E+00  0.00000000E+00
  0.00000000E+00  0.00000000E+00  0.00000000E+00
  0.00000000E+00  0.00000000E+00  0.00000000E+00
  0.00000000E+00  0.00000000E+00  0.00000000E+00
  0.00000000E+00  0.00000000E+00  0.00000000E+00
