NiCo3_fccsqs16                          
   3.50000000000000     
     0.5008977641211060    0.5009397824773211   -1.0062181896596540
     0.0001368469733846   -1.5034493428592213   -0.5033566631776697
    -2.0059302548599840    0.5015397689348088   -0.5039811220382637
   Ni   Co
     4    12
Direct
  0.7491385344865977  0.3111261574806966  0.1877509733537884
  0.2505150766147096  0.4378065895155922  0.0618332434830288
  0.0002370339603810  0.7508474962707196  0.2503817086633746
  0.7505867960455792  0.0629667653927143  0.4377237017503128
  0.5002252495995088  0.8756049412325815  0.1235436294492039
  0.2504833489718283  0.1886526897935894  0.3131268587545512
  0.0015319791918660  0.5010716321804731  0.5010521782522450
  0.4993599940102291  0.6241056752248539  0.3768086247684017
  0.5007103753511534  0.3750348195142674  0.6255748751045842
  0.7499275288452029  0.8128598433815099  0.6864906927235686
  0.9999107939125799  0.2504113996562397  0.7502938079594835
  0.2513038390512416  0.9362447206223629  0.5635892964972578
  0.7485598315892720  0.5635389770261239  0.9358664642280902
  0.2500289171437149  0.6875420856886854  0.8128982358361327
  0.4987940952995388  0.1238528036299747  0.8736469438083091
  0.9986866059266039  0.9983334033896297  0.9994187653676465
 
  0.00000000E+00  0.00000000E+00  0.00000000E+00
  0.00000000E+00  0.00000000E+00  0.00000000E+00
  0.00000000E+00  0.00000000E+00  0.00000000E+00
  0.00000000E+00  0.00000000E+00  0.00000000E+00
  0.00000000E+00  0.00000000E+00  0.00000000E+00
  0.00000000E+00  0.00000000E+00  0.00000000E+00
  0.00000000E+00  0.00000000E+00  0.00000000E+00
  0.00000000E+00  0.00000000E+00  0.00000000E+00
  0.00000000E+00  0.00000000E+00  0.00000000E+00
  0.00000000E+00  0.00000000E+00  0.00000000E+00
  0.00000000E+00  0.00000000E+00  0.00000000E+00
  0.00000000E+00  0.00000000E+00  0.00000000E+00
  0.00000000E+00  0.00000000E+00  0.00000000E+00
  0.00000000E+00  0.00000000E+00  0.00000000E+00
  0.00000000E+00  0.00000000E+00  0.00000000E+00
  0.00000000E+00  0.00000000E+00  0.00000000E+00
