FeCo_bccsqs16_5050                      
   3.40000000000000     
    -0.4180491043075203   -1.2494786849906958   -2.0841477279609752
    -0.4178382205076693    2.0835556134086066    1.2497920431960534
     1.2516810005823564    0.4160176501073374   -0.4160521358503845
   Fe   Co
     8     8
Direct
  0.0003564898461861  0.5005432607986295  0.4986506092392571
  0.4998693189980250  0.0016313823655665  0.4958502989583445
  0.2493977029887223  0.0005906341793684  0.7525471751321000
  0.0001306810019751  0.2483686176344335  0.7541497010416555
  0.2506022970112777  0.2494093658206316  0.4974528248679002
  0.7490026087680581  0.9978769337079846  0.2519440558412127
  0.4996435101538139  0.7494567392013705  0.7513493907607428
  0.7509973912319419  0.2521230662920153  0.9980559441587873
  0.4975683642976540  0.2488316141832725  0.2472295918274859
  0.2493997456464176  0.4977354617857713  0.2531847260905999
  0.7475871868050361  0.7485182545020648  0.4978394835615724
  0.9963986273450545  0.7459669952946056  0.2569503509091582
  0.7524128131949639  0.5014817454979352  0.7521605164384275
  0.0024316357023459  0.0011683858167276  0.0027704081725142
  0.5036013726549455  0.5040330047053944  0.9930496490908416
  0.2506002543535824  0.7522645382142286  0.9968152739094004
 
  0.00000000E+00  0.00000000E+00  0.00000000E+00
  0.00000000E+00  0.00000000E+00  0.00000000E+00
  0.00000000E+00  0.00000000E+00  0.00000000E+00
  0.00000000E+00  0.00000000E+00  0.00000000E+00
  0.00000000E+00  0.00000000E+00  0.00000000E+00
  0.00000000E+00  0.00000000E+00  0.00000000E+00
  0.00000000E+00  0.00000000E+00  0.00000000E+00
  0.00000000E+00  0.00000000E+00  0.00000000E+00
  0.00000000E+00  0.00000000E+00  0.00000000E+00
  0.00000000E+00  0.00000000E+00  0.00000000E+00
  0.00000000E+00  0.00000000E+00  0.00000000E+00
  0.00000000E+00  0.00000000E+00  0.00000000E+00
  0.00000000E+00  0.00000000E+00  0.00000000E+00
  0.00000000E+00  0.00000000E+00  0.00000000E+00
  0.00000000E+00  0.00000000E+00  0.00000000E+00
  0.00000000E+00  0.00000000E+00  0.00000000E+00
