FeCo3_fccsqs16                          
   3.50000000000000     
     0.5089893778889640    0.5057600413007667   -1.0039072535460354
     0.0006930140158702   -1.5192966225968962   -0.5026130709159399
    -2.0361630008839895    0.5069561486173125   -0.5014100684027329
   Fe   Co
     4    12
Direct
  0.7537156053042398  0.3067241914604916  0.1870169883577915
  0.2598511236946732  0.4394640910565346  0.0574503622358769
  0.9996293736059837  0.7552083936137577  0.2506601096970981
  0.7398104603787724  0.0616496006647056  0.4443017148686033
  0.5020992801671316  0.8769569639741052  0.1210707075814204
  0.2476803744406801  0.1896893815611603  0.3148955397498047
  0.9961012026060919  0.5020145441839771  0.5035385557303260
  0.4927957645574959  0.6205066026155731  0.3782812090492809
  0.4923893879980826  0.3761875661402085  0.6273452811476741
  0.7484469578112868  0.8093409188744376  0.6880084548889518
  0.0006642883602260  0.2506702510066862  0.7511117560540640
  0.2456579786852720  0.9361388429777362  0.5670628016600913
  0.7542528708016226  0.5648468647861298  0.9326568810751888
  0.2515424546140861  0.6904486143093509  0.8105634829874470
  0.5070601878601995  0.1225934475718600  0.8701588645903975
  0.0083026891141205  0.9975597252032784  0.9958772903259986
 
  0.00000000E+00  0.00000000E+00  0.00000000E+00
  0.00000000E+00  0.00000000E+00  0.00000000E+00
  0.00000000E+00  0.00000000E+00  0.00000000E+00
  0.00000000E+00  0.00000000E+00  0.00000000E+00
  0.00000000E+00  0.00000000E+00  0.00000000E+00
  0.00000000E+00  0.00000000E+00  0.00000000E+00
  0.00000000E+00  0.00000000E+00  0.00000000E+00
  0.00000000E+00  0.00000000E+00  0.00000000E+00
  0.00000000E+00  0.00000000E+00  0.00000000E+00
  0.00000000E+00  0.00000000E+00  0.00000000E+00
  0.00000000E+00  0.00000000E+00  0.00000000E+00
  0.00000000E+00  0.00000000E+00  0.00000000E+00
  0.00000000E+00  0.00000000E+00  0.00000000E+00
  0.00000000E+00  0.00000000E+00  0.00000000E+00
  0.00000000E+00  0.00000000E+00  0.00000000E+00
  0.00000000E+00  0.00000000E+00  0.00000000E+00
