Cr3Mn_bccsqs16_7525                     
   3.35000000000000     
     0.8445515659940300   -1.6867985834010357    0.0005779436540318
     0.0005779436540318   -1.6867985834010357    0.8445515659940300
    -1.6860784069842851    0.0020870269207844   -1.6860784069842851
   Cr   Mn
    12     4
Direct
  0.7514897586785714  0.7514897586785714  0.3778079946909614
  0.2536438216960010  0.2536438216960010  0.1280084047024505
  0.6248604040066185  0.6248604040066185  0.5627650489665184
  0.8750878144871660  0.8750878144871660  0.6869186595862216
  0.1218224410826648  0.1218224410826648  0.3070202946411235
  0.3721764090236231  0.3721764090236231  0.4316346519654840
  0.7504103348342200  0.7504103348342200  0.8747659256276621
  0.0014403739343947  0.0014403739343947  0.0045868591352928
  0.2496689311089006  0.2496689311089006  0.6256309598085883
  0.5001247790075767  0.5001247790075767  0.7482612597684232
  0.1252535411672684  0.1252535411672684  0.8138012999384718
  0.3754577728545830  0.3754577728545830  0.9391534880025352
  0.0017970605762917  0.0017970605762917  0.4996015061634668
  0.5050294875019898  0.5050294875019898  0.2608145240989557
  0.6241027803916419  0.6241027803916419  0.0587862448905308
  0.8676342896484890  0.8676342896484890  0.1804428780133140
 
  0.00000000E+00  0.00000000E+00  0.00000000E+00
  0.00000000E+00  0.00000000E+00  0.00000000E+00
  0.00000000E+00  0.00000000E+00  0.00000000E+00
  0.00000000E+00  0.00000000E+00  0.00000000E+00
  0.00000000E+00  0.00000000E+00  0.00000000E+00
  0.00000000E+00  0.00000000E+00  0.00000000E+00
  0.00000000E+00  0.00000000E+00  0.00000000E+00
  0.00000000E+00  0.00000000E+00  0.00000000E+00
  0.00000000E+00  0.00000000E+00  0.00000000E+00
  0.00000000E+00  0.00000000E+00  0.00000000E+00
  0.00000000E+00  0.00000000E+00  0.00000000E+00
  0.00000000E+00  0.00000000E+00  0.00000000E+00
  0.00000000E+00  0.00000000E+00  0.00000000E+00
  0.00000000E+00  0.00000000E+00  0.00000000E+00
  0.00000000E+00  0.00000000E+00  0.00000000E+00
  0.00000000E+00  0.00000000E+00  0.00000000E+00
