NiMn3_fccsqs16                          
   3.50000000000000     
     0.5030298785401620    0.5042178566453274   -1.0126979292232197
     0.0025353179772593   -1.5140528087988001   -0.5057935233689240
    -2.0141508976139231    0.5079556407241392   -0.5055971414348909
   Ni   Mn
     4    12
Direct
  0.7509024922003588  0.3112213297502910  0.1927551895587446
  0.2568007565021583  0.4412024613869768  0.0669973862528730
 -0.0103700485827210  0.7493392997949502  0.2462148588727512
  0.7550848418294666  0.0617025330939160  0.4371533404715749
  0.4880272525454317  0.8817004682630207  0.1234144157332540
  0.2487853545898653  0.1817967176538812  0.3178597265389511
  0.0041589468926978  0.4988380538797637  0.5058415654554468
  0.4960224649257218  0.6234949250275607  0.3834770893045383
  0.5092510902088894  0.3773108850035575  0.6199344596057240
  0.7454674664007775  0.8159291905638998  0.6859119295542554
  0.0047159710774957  0.2532323992020333  0.7466939275156966
  0.2566513318162172  0.9260948183263367  0.5549961202886904
  0.7564526090959252  0.5490044046596967  0.9318084226404846
  0.2535794446844034  0.6912642006337520  0.8165634081733285
  0.4940646589904963  0.1261664172096999  0.8775250388984138
 -0.0095946331771820  0.0117018955506633 -0.0071468788647278
 
  0.00000000E+00  0.00000000E+00  0.00000000E+00
  0.00000000E+00  0.00000000E+00  0.00000000E+00
  0.00000000E+00  0.00000000E+00  0.00000000E+00
  0.00000000E+00  0.00000000E+00  0.00000000E+00
  0.00000000E+00  0.00000000E+00  0.00000000E+00
  0.00000000E+00  0.00000000E+00  0.00000000E+00
  0.00000000E+00  0.00000000E+00  0.00000000E+00
  0.00000000E+00  0.00000000E+00  0.00000000E+00
  0.00000000E+00  0.00000000E+00  0.00000000E+00
  0.00000000E+00  0.00000000E+00  0.00000000E+00
  0.00000000E+00  0.00000000E+00  0.00000000E+00
  0.00000000E+00  0.00000000E+00  0.00000000E+00
  0.00000000E+00  0.00000000E+00  0.00000000E+00
  0.00000000E+00  0.00000000E+00  0.00000000E+00
  0.00000000E+00  0.00000000E+00  0.00000000E+00
  0.00000000E+00  0.00000000E+00  0.00000000E+00
