CoPd3_fccsqs16                          
   3.50000000000000     
     0.5515014473048282    0.5518027109465050   -1.0991671910439589
     0.0018783371420677   -1.6543593688189109   -0.5481129521892129
    -2.2080610477138372    0.5543585365691271   -0.5493584449793060
   Co   Pd
     4    12
Direct
  0.7598887886456048  0.3229045552396527  0.1900417179359787
  0.2386132528427831  0.4386588089626414  0.0722245211068485
  0.0033666418501571  0.7364000736174949  0.2478101724963209
  0.7535942953413877  0.0649791530651395  0.4284277379181326
  0.5041817813692776  0.8764889843524024  0.1331536898772075
  0.2489363807860540  0.1854609018184520  0.3064226821356207
 -0.0024444713087008  0.4930204786096843  0.4894675391131844
  0.5072853828986318  0.6259697496854905  0.3646844132804391
  0.5056376341930648  0.3699143545620177  0.6211448241571388
  0.7473033193976655  0.8152026200695903  0.6847389237946520
 -0.0005267192626354  0.2501463931851831  0.7495657017367360
  0.2435864327910942  0.9354148533932493  0.5504148992221578
  0.7536479871043588  0.5601705155728152  0.9524515474649525
  0.2500736866163697  0.6847902069653021  0.8172949987038122
  0.4934863866934508  0.1330113908992792  0.8854982926085675
 -0.0066307799585634  0.0074669600016052  0.0066583384482504
 
  0.00000000E+00  0.00000000E+00  0.00000000E+00
  0.00000000E+00  0.00000000E+00  0.00000000E+00
  0.00000000E+00  0.00000000E+00  0.00000000E+00
  0.00000000E+00  0.00000000E+00  0.00000000E+00
  0.00000000E+00  0.00000000E+00  0.00000000E+00
  0.00000000E+00  0.00000000E+00  0.00000000E+00
  0.00000000E+00  0.00000000E+00  0.00000000E+00
  0.00000000E+00  0.00000000E+00  0.00000000E+00
  0.00000000E+00  0.00000000E+00  0.00000000E+00
  0.00000000E+00  0.00000000E+00  0.00000000E+00
  0.00000000E+00  0.00000000E+00  0.00000000E+00
  0.00000000E+00  0.00000000E+00  0.00000000E+00
  0.00000000E+00  0.00000000E+00  0.00000000E+00
  0.00000000E+00  0.00000000E+00  0.00000000E+00
  0.00000000E+00  0.00000000E+00  0.00000000E+00
  0.00000000E+00  0.00000000E+00  0.00000000E+00
