NiFe3_fccsqs16                          
   3.50000000000000     
     0.5769956985974728    0.5767974805242749   -0.8154474429991077
    -0.0048820772213041   -1.7240976387988289   -0.4070473230453969
    -2.3015071179182542    0.5688746250452872   -0.4101701980930589
   Ni   Fe
     4    12
Direct
  0.7471032816462010  0.3054270944582727  0.1892106446671248
  0.2485381486177251  0.4388080840237092  0.0585700427792440
  0.0054561428556737  0.7571874652199724  0.2531069944119133
  0.7493565353429756  0.0619531543994695  0.4369646025676845
  0.4980649538720086  0.8730800180121638  0.1227270128107667
  0.2509235304554324  0.1906721590903178  0.3114138051334396
  0.0019149229377337  0.5034519062898424  0.5002876043137814
  0.4964654173703779  0.6201027045559797  0.3725228235645767
  0.4994100075340825  0.3743576380035523  0.6244322949292099
  0.7497717849373441  0.8120019641504806  0.6875826548219053
  0.9994280981831072  0.2497248756208242  0.7491315261017221
  0.2503980186379658  0.9372687105495479  0.5636064177173868
  0.7516242988365320  0.5621681015596953  0.9412173761820211
  0.2504716536083340  0.6883552029289521  0.8126275354551692
  0.5013458581207604  0.1265890936816907  0.8761118798354757
  0.9997273470437461  0.9988518274555435  0.0004867847085859
 
  0.00000000E+00  0.00000000E+00  0.00000000E+00
  0.00000000E+00  0.00000000E+00  0.00000000E+00
  0.00000000E+00  0.00000000E+00  0.00000000E+00
  0.00000000E+00  0.00000000E+00  0.00000000E+00
  0.00000000E+00  0.00000000E+00  0.00000000E+00
  0.00000000E+00  0.00000000E+00  0.00000000E+00
  0.00000000E+00  0.00000000E+00  0.00000000E+00
  0.00000000E+00  0.00000000E+00  0.00000000E+00
  0.00000000E+00  0.00000000E+00  0.00000000E+00
  0.00000000E+00  0.00000000E+00  0.00000000E+00
  0.00000000E+00  0.00000000E+00  0.00000000E+00
  0.00000000E+00  0.00000000E+00  0.00000000E+00
  0.00000000E+00  0.00000000E+00  0.00000000E+00
  0.00000000E+00  0.00000000E+00  0.00000000E+00
  0.00000000E+00  0.00000000E+00  0.00000000E+00
  0.00000000E+00  0.00000000E+00  0.00000000E+00
