CrPd3_bccsqs16_7525                     
   3.35000000000000     
     0.8264303931092064   -2.3225191410319712    0.0066996764700471
     0.0066996764700471   -2.3225191410319712    0.8264303931092064
    -1.6570168464801536   -0.0015676625023444   -1.6570168464801538
   Cr   Pd
     4    12
Direct
  0.0004557428317809  0.0004557428317809  0.4991793527618498
  0.4990215928028200  0.4990215928028200  0.2516680195202317
  0.6247710672352795  0.6247710672352795  0.0622854442686274
  0.8762389737315589  0.8762389737315589  0.1846506788382979
  0.7510690997971654  0.7510690997971654  0.3710732059490067
  0.2483427844703610  0.2483427844703610  0.1258720905633023
  0.6183893917619111  0.6183893917619111  0.5549073631268382
  0.8775246331521321  0.8775246331521321  0.6850329718299880
  0.1219768679371264  0.1219768679371264  0.3099593468190808
  0.3800822573025068  0.3800822573025068  0.4293658630744437
  0.7503827221930115  0.7503827221930114  0.8787699543206684
  0.0010449124079920  0.0010449124079920  0.0082131053034018
  0.2501903909692539  0.2501903909692540  0.6239383473114907
  0.5001284027199141  0.5001284027199141  0.7513534900192120
  0.1236532116322052  0.1236532116322052  0.8133131691519320
  0.3767279490549673  0.3767279490549673  0.9504175971416352
 
  0.00000000E+00  0.00000000E+00  0.00000000E+00
  0.00000000E+00  0.00000000E+00  0.00000000E+00
  0.00000000E+00  0.00000000E+00  0.00000000E+00
  0.00000000E+00  0.00000000E+00  0.00000000E+00
  0.00000000E+00  0.00000000E+00  0.00000000E+00
  0.00000000E+00  0.00000000E+00  0.00000000E+00
  0.00000000E+00  0.00000000E+00  0.00000000E+00
  0.00000000E+00  0.00000000E+00  0.00000000E+00
  0.00000000E+00  0.00000000E+00  0.00000000E+00
  0.00000000E+00  0.00000000E+00  0.00000000E+00
  0.00000000E+00  0.00000000E+00  0.00000000E+00
  0.00000000E+00  0.00000000E+00  0.00000000E+00
  0.00000000E+00  0.00000000E+00  0.00000000E+00
  0.00000000E+00  0.00000000E+00  0.00000000E+00
  0.00000000E+00  0.00000000E+00  0.00000000E+00
  0.00000000E+00  0.00000000E+00  0.00000000E+00
