Ni3Mn_fccsqs16                          
   3.50000000000000     
     0.5170438175630745    0.5154146280457013   -1.0124559377109372
    -0.0000139336003664   -1.5439252729083188   -0.5051250335995772
    -2.0520948342977001    0.5127772228306343   -0.4995657120306293
   Ni   Mn
    12     4
Direct
  0.5041669079895742  0.8759996442074949  0.1202849523073564
  0.2471695809487428  0.1938864902940646  0.3166819197054900
 -0.0083632835628917  0.4992241231713214  0.5003912863137846
  0.4945413422296252  0.6195791245069304  0.3766548952854191
  0.4911500281563874  0.3783190053725617  0.6263586459566761
  0.7481853168495410  0.8049409116660586  0.6904223997593883
 -0.0001426615420619  0.2521771380634213  0.7497423890412591
  0.2362357795809411  0.9363724675408909  0.5668923289867331
  0.7607042955269555  0.5628941165696008  0.9377878213833788
  0.2544179188233028  0.6915606592023671  0.8090487057194312
  0.5092157100107080  0.1235368152036710  0.8720483076050799
  0.0097268523111510  0.0000646038608160 -0.0071591846858782
  0.7553536082008819  0.2987925898554418  0.1867206564148627
  0.2637496391669847  0.4386056870071706  0.0497996299974866
  0.0073300004386972  0.7660119769827503  0.2507779257568644
  0.7265589648714610  0.0580346464954391  0.4535473204526675
 
  0.00000000E+00  0.00000000E+00  0.00000000E+00
  0.00000000E+00  0.00000000E+00  0.00000000E+00
  0.00000000E+00  0.00000000E+00  0.00000000E+00
  0.00000000E+00  0.00000000E+00  0.00000000E+00
  0.00000000E+00  0.00000000E+00  0.00000000E+00
  0.00000000E+00  0.00000000E+00  0.00000000E+00
  0.00000000E+00  0.00000000E+00  0.00000000E+00
  0.00000000E+00  0.00000000E+00  0.00000000E+00
  0.00000000E+00  0.00000000E+00  0.00000000E+00
  0.00000000E+00  0.00000000E+00  0.00000000E+00
  0.00000000E+00  0.00000000E+00  0.00000000E+00
  0.00000000E+00  0.00000000E+00  0.00000000E+00
  0.00000000E+00  0.00000000E+00  0.00000000E+00
  0.00000000E+00  0.00000000E+00  0.00000000E+00
  0.00000000E+00  0.00000000E+00  0.00000000E+00
  0.00000000E+00  0.00000000E+00  0.00000000E+00
