CoMn3_fccsqs16                          
   3.50000000000000     
     0.5003096561710612    0.5008742708240637   -0.9972664571474456
     0.0067394465240450   -1.5104764550923662   -0.4992038811287743
    -2.0125733564928288    0.5122510272253704   -0.4985777637546536
   Co   Mn
     4    12
Direct
  0.7436925325324384  0.3107757099694179  0.1888846817733272
  0.2467353750103493  0.4380502783170540  0.0646169459892066
 -0.0010034755569560  0.7480789568009559  0.2529993203976206
  0.7532398534405887  0.0602159847803798  0.4382955839747717
  0.4991425359019283  0.8782001142137332  0.1199285864370273
  0.2488086245586188  0.1850353304300041  0.3150203452467216
  0.0058083872908237  0.5025677465812725  0.4974331108020048
  0.5042282756940920  0.6321902399231401  0.3708837641026237
  0.5179068340615123  0.3809881555812103  0.6201782688148016
  0.7408480258658083  0.8135212353529790  0.6858819835081291
  0.0117439418015154  0.2486007795064933  0.7479360289960445
  0.2487951006737179  0.9338130532662930  0.5595120459569000
  0.7468107751365647  0.5554081932042488  0.9452709292445978
  0.2435673385164636  0.6785301602105624  0.8149687781165543
  0.4993511842199950  0.1343431940696665  0.8758928189396036
 -0.0096753091474606 -0.0003191322074104  0.0022968077000657
 
  0.00000000E+00  0.00000000E+00  0.00000000E+00
  0.00000000E+00  0.00000000E+00  0.00000000E+00
  0.00000000E+00  0.00000000E+00  0.00000000E+00
  0.00000000E+00  0.00000000E+00  0.00000000E+00
  0.00000000E+00  0.00000000E+00  0.00000000E+00
  0.00000000E+00  0.00000000E+00  0.00000000E+00
  0.00000000E+00  0.00000000E+00  0.00000000E+00
  0.00000000E+00  0.00000000E+00  0.00000000E+00
  0.00000000E+00  0.00000000E+00  0.00000000E+00
  0.00000000E+00  0.00000000E+00  0.00000000E+00
  0.00000000E+00  0.00000000E+00  0.00000000E+00
  0.00000000E+00  0.00000000E+00  0.00000000E+00
  0.00000000E+00  0.00000000E+00  0.00000000E+00
  0.00000000E+00  0.00000000E+00  0.00000000E+00
  0.00000000E+00  0.00000000E+00  0.00000000E+00
  0.00000000E+00  0.00000000E+00  0.00000000E+00
