CrPd3_fccsqs16                          
   3.50000000000000     
     0.5500615337671595    0.5609352937628475   -1.1009561951716158
     0.0025578216974399   -1.6668379029739766   -0.5414064511964325
    -2.2022612201685527    0.5621492827291552   -0.5507633820849694
   Cr   Pd
     4    12
Direct
  0.7888304497936592  0.3338045050880327  0.1808541250703773
  0.1993043223489832  0.4471018756801377  0.0786795016078811
  0.0164984680399307  0.7143007076823189  0.2388596681941630
  0.7428029232164333  0.0692469469723167  0.4407263256105569
  0.5175285954474982  0.8831108401481383  0.1402206540858109
  0.2459037978969129  0.1829179506528884  0.3071078299902368
 -0.0006780262648203  0.4893609341124786  0.4892762409813204
  0.5129603485406021  0.6231376521590245  0.3630920177204274
  0.5108990170234269  0.3645165613024920  0.6199853466104992
  0.7436238048004451  0.8191529983564654  0.6816334237070243
  0.0068389028019069  0.2508276053151692  0.7527325566714637
  0.2363380526693681  0.9325259785204481  0.5451407291271415
  0.7379966775225072  0.5642210975728383  0.9457929135284738
  0.2463901894230297  0.6872033984825723  0.8172119528176668
  0.4981158203589175  0.1340538209313279  0.8915403652269497
 -0.0033533436188007  0.0045171270233492  0.0071463490500063
 
  0.00000000E+00  0.00000000E+00  0.00000000E+00
  0.00000000E+00  0.00000000E+00  0.00000000E+00
  0.00000000E+00  0.00000000E+00  0.00000000E+00
  0.00000000E+00  0.00000000E+00  0.00000000E+00
  0.00000000E+00  0.00000000E+00  0.00000000E+00
  0.00000000E+00  0.00000000E+00  0.00000000E+00
  0.00000000E+00  0.00000000E+00  0.00000000E+00
  0.00000000E+00  0.00000000E+00  0.00000000E+00
  0.00000000E+00  0.00000000E+00  0.00000000E+00
  0.00000000E+00  0.00000000E+00  0.00000000E+00
  0.00000000E+00  0.00000000E+00  0.00000000E+00
  0.00000000E+00  0.00000000E+00  0.00000000E+00
  0.00000000E+00  0.00000000E+00  0.00000000E+00
  0.00000000E+00  0.00000000E+00  0.00000000E+00
  0.00000000E+00  0.00000000E+00  0.00000000E+00
  0.00000000E+00  0.00000000E+00  0.00000000E+00
