CoCr_bccsqs16_5050                      
   3.40000000000000     
    -0.4032977629392239   -1.2735392696789694   -2.0266039355303285
    -0.3975674839781949    2.1442038114292603    1.2016490506944879
     1.2004253622337935    0.4362501498436266   -0.4103764204299835
   Co   Cr
     8     8
Direct
  0.0443453535145342  0.5496050914026479  0.5382840273320534
  0.5497021884377119  0.0427300165377696  0.5182775918865716
  0.2621462628147913  0.0039855424374275  0.7553873491318792
 -0.0497021884377122  0.2072699834622303  0.7317224081134283
  0.2378537371852086  0.2460144575625724  0.4946126508681217
  0.7152293669886834 -0.0410124680430862  0.2223896615718646
  0.4556546464854659  0.7003949085973521  0.7117159726679466
  0.7847706330113166  0.2910124680430863  0.0276103384281355
  0.5123096266832317  0.2631833441841322  0.2689600979818642
  0.1997018856025885  0.4608515307512221  0.2248006598438933
  0.7512251071574485  0.7430516982908040  0.4943133667054485
  0.0150660774906818  0.7633635235821079  0.2440946439457061
  0.7487748928425515  0.5069483017091958  0.7556866332945519
 -0.0123096266832319 -0.0131833441841322 -0.0189600979818642
  0.4849339225093182  0.4866364764178920  0.0059053560542939
  0.3002981143974115  0.7891484692487781  0.0251993401561068
 
  0.00000000E+00  0.00000000E+00  0.00000000E+00
  0.00000000E+00  0.00000000E+00  0.00000000E+00
  0.00000000E+00  0.00000000E+00  0.00000000E+00
  0.00000000E+00  0.00000000E+00  0.00000000E+00
  0.00000000E+00  0.00000000E+00  0.00000000E+00
  0.00000000E+00  0.00000000E+00  0.00000000E+00
  0.00000000E+00  0.00000000E+00  0.00000000E+00
  0.00000000E+00  0.00000000E+00  0.00000000E+00
  0.00000000E+00  0.00000000E+00  0.00000000E+00
  0.00000000E+00  0.00000000E+00  0.00000000E+00
  0.00000000E+00  0.00000000E+00  0.00000000E+00
  0.00000000E+00  0.00000000E+00  0.00000000E+00
  0.00000000E+00  0.00000000E+00  0.00000000E+00
  0.00000000E+00  0.00000000E+00  0.00000000E+00
  0.00000000E+00  0.00000000E+00  0.00000000E+00
  0.00000000E+00  0.00000000E+00  0.00000000E+00
