Ni3Pd_fccsqs16                          
   3.50000000000000     
     0.5192040674873262    0.5216774833085088   -1.0344838386209965
     0.0010790997082004   -1.5651155265090022   -0.5167551275882382
    -2.0868459554290593    0.5245070396659929   -0.5209043862090927
   Ni   Pd
    12     4
Direct
  0.5003890610995345  0.8757347874053663  0.1105446379676290
  0.2511160493916320  0.1971310360752928  0.3232471498624321
 -0.0000922891671966  0.5059622094348071  0.5112703949124213
  0.4954698043256995  0.6181895798221838  0.3882729307638790
  0.4888112521386455  0.3799959605239940  0.6318876411730180
  0.7479779455049885  0.8055857216219977  0.6913887430173881
 -0.0007221226604431  0.2504197744912598  0.7497918702044105
  0.2431044204767227  0.9351146188349464  0.5746802979752598
  0.7540016880442256  0.5664860096807947  0.9239314730961742
  0.2514010748086367  0.6921829237897268  0.8066021591357250
  0.5077610881232196  0.1176275323628856  0.8640794105491704
  0.0066028862996584 -0.0074838737691123 -0.0132587402906182
  0.7532574584667202  0.3030211573871620  0.1857405230425334
  0.2596380360966347  0.4378157228585060  0.0507535407495324
  0.0063817530938758  0.7604256933841042  0.2508757617385219
  0.7349018939574463  0.0617911460960850  0.4501922061025231
 
  0.00000000E+00  0.00000000E+00  0.00000000E+00
  0.00000000E+00  0.00000000E+00  0.00000000E+00
  0.00000000E+00  0.00000000E+00  0.00000000E+00
  0.00000000E+00  0.00000000E+00  0.00000000E+00
  0.00000000E+00  0.00000000E+00  0.00000000E+00
  0.00000000E+00  0.00000000E+00  0.00000000E+00
  0.00000000E+00  0.00000000E+00  0.00000000E+00
  0.00000000E+00  0.00000000E+00  0.00000000E+00
  0.00000000E+00  0.00000000E+00  0.00000000E+00
  0.00000000E+00  0.00000000E+00  0.00000000E+00
  0.00000000E+00  0.00000000E+00  0.00000000E+00
  0.00000000E+00  0.00000000E+00  0.00000000E+00
  0.00000000E+00  0.00000000E+00  0.00000000E+00
  0.00000000E+00  0.00000000E+00  0.00000000E+00
  0.00000000E+00  0.00000000E+00  0.00000000E+00
  0.00000000E+00  0.00000000E+00  0.00000000E+00
