Cr3Mn_fccsqs16                          
   3.50000000000000     
     0.5751008165464730    0.5749556735456924   -0.8060159958446782
     0.0032324772217821   -1.7104890635673764   -0.4051534479123526
    -2.2849864200652208    0.5724961816947964   -0.4108574370037813
   Cr   Mn
    12     4
Direct
  0.4993115664776324  0.8750753604882173  0.1231553967046015
  0.2510403151673388  0.1925642908937541  0.3103787703148373
  0.0011352858216171  0.5030668226004478  0.5000835316292177
  0.4954240767120019  0.6182339226739805  0.3724288062198731
  0.4961175458958614  0.3704225097776380  0.6223927204150286
  0.7511523649252458  0.8137370563959553  0.6890751952443026
 -0.0000981502830098  0.2498858804442291  0.7491092675342829
  0.2486990385592396  0.9366912944598172  0.5609159454564578
  0.7501924196154908  0.5593381260953066  0.9399329703078053
  0.2509755910979173  0.6890429748928368  0.8123747089386656
  0.5043873467253924  0.1309302357413819  0.8776703204219773
  0.0025192787658940  0.0024991403725883  0.0014565181866141
  0.7468315104324778  0.3001469662081845  0.1925674042943145
  0.2562342702893821  0.4486240666604128  0.0633333219808598
  0.0016271571995896  0.7541041593670270  0.2498305088027036
  0.7444503825979286  0.0556371929282229  0.4352946135484581
 
  0.00000000E+00  0.00000000E+00  0.00000000E+00
  0.00000000E+00  0.00000000E+00  0.00000000E+00
  0.00000000E+00  0.00000000E+00  0.00000000E+00
  0.00000000E+00  0.00000000E+00  0.00000000E+00
  0.00000000E+00  0.00000000E+00  0.00000000E+00
  0.00000000E+00  0.00000000E+00  0.00000000E+00
  0.00000000E+00  0.00000000E+00  0.00000000E+00
  0.00000000E+00  0.00000000E+00  0.00000000E+00
  0.00000000E+00  0.00000000E+00  0.00000000E+00
  0.00000000E+00  0.00000000E+00  0.00000000E+00
  0.00000000E+00  0.00000000E+00  0.00000000E+00
  0.00000000E+00  0.00000000E+00  0.00000000E+00
  0.00000000E+00  0.00000000E+00  0.00000000E+00
  0.00000000E+00  0.00000000E+00  0.00000000E+00
  0.00000000E+00  0.00000000E+00  0.00000000E+00
  0.00000000E+00  0.00000000E+00  0.00000000E+00
