Co3Mn_bccsqs16_7525                     
   3.35000000000000     
     0.8442891151636891   -1.7076134712144049    0.0011609838493078
     0.0011609838493077   -1.7076134712144049    0.8442891151636891
    -1.6905395171790458    0.0001833014140591   -1.6905395171790458
   Co   Mn
    12     4
Direct
  0.7500506377620024  0.7500506377620024  0.3786832350824605
  0.2491822253392721  0.2491822253392721  0.1243226163135983
  0.6268553463729113  0.6268553463729113  0.5652979537709999
  0.8756091628754872  0.8756091628754872  0.6879281576200993
  0.1259771204008514  0.1259771204008514  0.3129923036782745
  0.3740857134068341  0.3740857134068341  0.4371800099113410
  0.7498403455772501  0.7498403455772501  0.8705726704185612
 -0.0007600883630851 -0.0007600883630851 -0.0024574453272479
  0.2514935617523679  0.2514935617523679  0.6268960177633190
  0.4996675031793498  0.4996675031793498  0.7509773031501931
  0.1252652679599061  0.1252652679599061  0.8107125850672702
  0.3750784438080435  0.3750784438080435  0.9377578931211962
  0.0013025481245321  0.0013025481245321  0.5026845040163460
  0.5014012630835587  0.5014012630835587  0.2557146391091252
  0.6265533509512050  0.6265533509512050  0.0600111328543428
  0.8683975977695135  0.8683975977695135  0.1807264234501199
 
  0.00000000E+00  0.00000000E+00  0.00000000E+00
  0.00000000E+00  0.00000000E+00  0.00000000E+00
  0.00000000E+00  0.00000000E+00  0.00000000E+00
  0.00000000E+00  0.00000000E+00  0.00000000E+00
  0.00000000E+00  0.00000000E+00  0.00000000E+00
  0.00000000E+00  0.00000000E+00  0.00000000E+00
  0.00000000E+00  0.00000000E+00  0.00000000E+00
  0.00000000E+00  0.00000000E+00  0.00000000E+00
  0.00000000E+00  0.00000000E+00  0.00000000E+00
  0.00000000E+00  0.00000000E+00  0.00000000E+00
  0.00000000E+00  0.00000000E+00  0.00000000E+00
  0.00000000E+00  0.00000000E+00  0.00000000E+00
  0.00000000E+00  0.00000000E+00  0.00000000E+00
  0.00000000E+00  0.00000000E+00  0.00000000E+00
  0.00000000E+00  0.00000000E+00  0.00000000E+00
  0.00000000E+00  0.00000000E+00  0.00000000E+00
