Fe3Co_fccsqs16                          
   3.50000000000000     
     0.5762962456064848    0.5737068900686190   -0.8109994513014335
     0.0029393708790714   -1.7245307516886950   -0.4049283644477690
    -2.2985417136044588    0.5769137826922018   -0.4120460434783105
   Fe   Co
    12     4
Direct
  0.5004154315171819  0.8751175941742907  0.1256895488909764
  0.2490513868964418  0.1861149165388791  0.3119938615562976
  0.9983432793304239  0.4979349174009720  0.4987667110998775
  0.4996724041675722  0.6263925710986055  0.3729992078505476
  0.4999976909045736  0.3754123642264962  0.6245984168503329
  0.7498889914651226  0.8117484357949015  0.6880230156551934
  0.0000044808789228  0.2500861021788033  0.7499162713758711
  0.2491439135319238  0.9374468644259599  0.5608521780261000
  0.7512562292204608  0.5625467784387627  0.9399599817732616
  0.2504240794704388  0.6885623063104045  0.8122933891893738
  0.5012357492801314  0.1257712781460488  0.8766709256438258
  0.0008273286953765  0.0017945348964027  0.9998197512989185
  0.7496734384759316  0.3106318058920147  0.1887181386974739
  0.2507071453130735  0.4386986580559860  0.0626857777474184
  0.0000205088357842  0.7502341241479451  0.2498176651485244
  0.7493379420166548  0.0615067482735344  0.4371951591960359
 
  0.00000000E+00  0.00000000E+00  0.00000000E+00
  0.00000000E+00  0.00000000E+00  0.00000000E+00
  0.00000000E+00  0.00000000E+00  0.00000000E+00
  0.00000000E+00  0.00000000E+00  0.00000000E+00
  0.00000000E+00  0.00000000E+00  0.00000000E+00
  0.00000000E+00  0.00000000E+00  0.00000000E+00
  0.00000000E+00  0.00000000E+00  0.00000000E+00
  0.00000000E+00  0.00000000E+00  0.00000000E+00
  0.00000000E+00  0.00000000E+00  0.00000000E+00
  0.00000000E+00  0.00000000E+00  0.00000000E+00
  0.00000000E+00  0.00000000E+00  0.00000000E+00
  0.00000000E+00  0.00000000E+00  0.00000000E+00
  0.00000000E+00  0.00000000E+00  0.00000000E+00
  0.00000000E+00  0.00000000E+00  0.00000000E+00
  0.00000000E+00  0.00000000E+00  0.00000000E+00
  0.00000000E+00  0.00000000E+00  0.00000000E+00
