Ni3Pd_bccsqs16_7525                     
   3.35000000000000     
     0.7745466568277881   -2.1635124233697809    0.0053095629551777
     0.0053095629551777   -2.1635124233697809    0.7745466568277881
    -1.5421611628596215   -0.0017758428221994   -1.5421611628596215
   Ni   Pd
    12     4
Direct
  0.7498059309983798  0.7498059309983798  0.3868218127494096
  0.2498628254019278  0.2498628254019278  0.1250916286016964
  0.6303590597215539  0.6303590597215539  0.5697222126370399
  0.8712476235878923  0.8712476235878924  0.6892095829877152
  0.1321314312591596  0.1321314312591596  0.3214150049201918
  0.3690200629578800  0.3690200629578800  0.4472384805930957
  0.7506735840778471  0.7506735840778471  0.8624860390596928
 -0.0026870135791788 -0.0026870135791788 -0.0158922849744896
  0.2495225912236372  0.2495225912236372  0.6256127900081776
  0.4968175679159868  0.4968175679159868  0.7551033203213866
  0.1304403631937159  0.1304403631937159  0.8106386071555395
  0.3715614849959790  0.3715614849959790  0.9234388834143694
  0.0011752028817087  0.0011752028817087  0.5148893177450529
  0.5024659275273303  0.5024659275273303  0.2462484024812345
  0.6293635794458382  0.6293635794458382  0.0567881223250630
  0.8682397783903418  0.8682397783903418  0.1811880799748249
 
  0.00000000E+00  0.00000000E+00  0.00000000E+00
  0.00000000E+00  0.00000000E+00  0.00000000E+00
  0.00000000E+00  0.00000000E+00  0.00000000E+00
  0.00000000E+00  0.00000000E+00  0.00000000E+00
  0.00000000E+00  0.00000000E+00  0.00000000E+00
  0.00000000E+00  0.00000000E+00  0.00000000E+00
  0.00000000E+00  0.00000000E+00  0.00000000E+00
  0.00000000E+00  0.00000000E+00  0.00000000E+00
  0.00000000E+00  0.00000000E+00  0.00000000E+00
  0.00000000E+00  0.00000000E+00  0.00000000E+00
  0.00000000E+00  0.00000000E+00  0.00000000E+00
  0.00000000E+00  0.00000000E+00  0.00000000E+00
  0.00000000E+00  0.00000000E+00  0.00000000E+00
  0.00000000E+00  0.00000000E+00  0.00000000E+00
  0.00000000E+00  0.00000000E+00  0.00000000E+00
  0.00000000E+00  0.00000000E+00  0.00000000E+00
