CoCr3_fccsqs16                          
   3.50000000000000     
     0.5709974362475682    0.5703747350273667   -0.8085078594565969
    -0.0019236755302576   -1.7166117919867834   -0.4076266601353914
    -2.2866794757964151    0.5671671203538053   -0.4101571137264178
   Co   Cr
     4    12
Direct
  0.7473563819053998  0.3051892398996724  0.1888548967165431
  0.2478300588107914  0.4381297369162897  0.0575572352394729
  0.0117963935939590  0.7676959747028236  0.2574673030843383
  0.7449364277327960  0.0573060232422665  0.4321007971994208
  0.4954185932071421  0.8726845518582331  0.1184322932712156
  0.2562198406645030  0.1996777010542723  0.3126000957769812
  0.0062922711263334  0.5110056165565295  0.5019776878247322
  0.4917823452381451  0.6121786203812806  0.3715839689711316
  0.4941793039928293  0.3673279139247882  0.6209194192496622
  0.7514508983635111  0.8144995473295374  0.6887581321551619
 -0.0012648813862071  0.2485392276339225  0.7484203586511610
  0.2521948332930208  0.9361520622285369  0.5675831266540399
  0.7492417139101960  0.5593153163636768  0.9389647090131192
  0.2493494814873956  0.6842136891793016  0.8143519892120538
  0.5021422959217233  0.1278834456619408  0.8768387081993844
  0.0010740421384595 -0.0017986669330711  0.0035892787815821
 
  0.00000000E+00  0.00000000E+00  0.00000000E+00
  0.00000000E+00  0.00000000E+00  0.00000000E+00
  0.00000000E+00  0.00000000E+00  0.00000000E+00
  0.00000000E+00  0.00000000E+00  0.00000000E+00
  0.00000000E+00  0.00000000E+00  0.00000000E+00
  0.00000000E+00  0.00000000E+00  0.00000000E+00
  0.00000000E+00  0.00000000E+00  0.00000000E+00
  0.00000000E+00  0.00000000E+00  0.00000000E+00
  0.00000000E+00  0.00000000E+00  0.00000000E+00
  0.00000000E+00  0.00000000E+00  0.00000000E+00
  0.00000000E+00  0.00000000E+00  0.00000000E+00
  0.00000000E+00  0.00000000E+00  0.00000000E+00
  0.00000000E+00  0.00000000E+00  0.00000000E+00
  0.00000000E+00  0.00000000E+00  0.00000000E+00
  0.00000000E+00  0.00000000E+00  0.00000000E+00
  0.00000000E+00  0.00000000E+00  0.00000000E+00
