Cr3Pd_bccsqs16_7525                     
   3.35000000000000     
     0.8715341523852206   -1.7491309383321383   -0.0085255105395332
    -0.0085255105395332   -1.7491309383321383    0.8715341523852206
    -1.7350061282803197   -0.0045711065115870   -1.7350061282803197
   Cr   Pd
    12     4
Direct
  0.7477242038782870  0.7477242038782870  0.3898277314615211
  0.2508422468619213  0.2508422468619213  0.1352182299756110
  0.6412744057843018  0.6412744057843018  0.5828216072317467
  0.8751128159619547  0.8751128159619547  0.6945701003572645
  0.1345471673710568  0.1345471673710568  0.2944268134267837
  0.3628401053997771  0.3628401053997771  0.4510276232839548
  0.7467179160150582  0.7467179160150582  0.8511287349340174
 -0.0087440896912639 -0.0087440896912639 -0.0288107996658209
  0.2469777769446750  0.2469777769446750  0.6236902552851653
  0.4871999112434576  0.4871999112434576  0.7351635924131439
  0.1341247731625624  0.1341247731625624  0.8361370713194668
  0.3783332388517065  0.3783332388517065  0.9298791361148184
  0.0060017804578973  0.0060017804578974  0.5090800441875744
  0.5055148857457005  0.5055148857457005  0.2712287085382287
  0.6244258624098218  0.6244258624098218  0.0540273465322960
  0.8671069996030866  0.8671069996030866  0.1705838046042284
 
  0.00000000E+00  0.00000000E+00  0.00000000E+00
  0.00000000E+00  0.00000000E+00  0.00000000E+00
  0.00000000E+00  0.00000000E+00  0.00000000E+00
  0.00000000E+00  0.00000000E+00  0.00000000E+00
  0.00000000E+00  0.00000000E+00  0.00000000E+00
  0.00000000E+00  0.00000000E+00  0.00000000E+00
  0.00000000E+00  0.00000000E+00  0.00000000E+00
  0.00000000E+00  0.00000000E+00  0.00000000E+00
  0.00000000E+00  0.00000000E+00  0.00000000E+00
  0.00000000E+00  0.00000000E+00  0.00000000E+00
  0.00000000E+00  0.00000000E+00  0.00000000E+00
  0.00000000E+00  0.00000000E+00  0.00000000E+00
  0.00000000E+00  0.00000000E+00  0.00000000E+00
  0.00000000E+00  0.00000000E+00  0.00000000E+00
  0.00000000E+00  0.00000000E+00  0.00000000E+00
  0.00000000E+00  0.00000000E+00  0.00000000E+00
