Fe3Cr_fccsqs16                          
   3.50000000000000     
     0.5023548606969359    0.5009424826359065   -1.0009287837752618
     0.0034105058817274   -1.5054675425376063   -0.5000938877903902
    -2.0138324865037553    0.5063196653141023   -0.4999617679720615
   Fe   Cr
    12     4
Direct
  0.5071947775623187  0.8765877383048503  0.1239904348438548
  0.2494681301205062  0.1898767304944692  0.3138699505216638
 -0.0006272470252226  0.4954756623056124  0.4970491126702748
  0.4983895243421471  0.6216803670463951  0.3763081499686796
  0.5006781088189123  0.3751191718848229  0.6214850923670292
  0.7499473691898305  0.8073113921494878  0.6885924461803086
  0.0016097880123035  0.2530577519682600  0.7493694151750465
  0.2447656413123328  0.9393758906925449  0.5630939276925534
  0.7494149995971913  0.5599387272102871  0.9389663875865599
  0.2535710462095788  0.6887606215601680  0.8108932094979877
  0.4999021707751418  0.1264575702513399  0.8757529487681635
  0.0026776229677704  0.0017381280431473 -0.0017200195024259
  0.7485822058689812  0.3014512775088385  0.1869313265519993
  0.2544064356964109  0.4444231126544774  0.0578278671875334
  0.0039600448660273  0.7609664186620522  0.2506777495293721
  0.7360593816857699  0.0577794392632465  0.4469120009613998
 
  0.00000000E+00  0.00000000E+00  0.00000000E+00
  0.00000000E+00  0.00000000E+00  0.00000000E+00
  0.00000000E+00  0.00000000E+00  0.00000000E+00
  0.00000000E+00  0.00000000E+00  0.00000000E+00
  0.00000000E+00  0.00000000E+00  0.00000000E+00
  0.00000000E+00  0.00000000E+00  0.00000000E+00
  0.00000000E+00  0.00000000E+00  0.00000000E+00
  0.00000000E+00  0.00000000E+00  0.00000000E+00
  0.00000000E+00  0.00000000E+00  0.00000000E+00
  0.00000000E+00  0.00000000E+00  0.00000000E+00
  0.00000000E+00  0.00000000E+00  0.00000000E+00
  0.00000000E+00  0.00000000E+00  0.00000000E+00
  0.00000000E+00  0.00000000E+00  0.00000000E+00
  0.00000000E+00  0.00000000E+00  0.00000000E+00
  0.00000000E+00  0.00000000E+00  0.00000000E+00
  0.00000000E+00  0.00000000E+00  0.00000000E+00
