CoPd_bcc                                
           1
    -1.880991   -3.920368   -7.763349
    -1.411309    6.612716    4.497651
     4.763885    1.383767   -1.401629
   Co   Pd
   8   8
Direct 
  -0.07884808  0.43376751  0.52708081
   0.46238166 -0.02457245  0.53273316
   0.19227722 -0.03601998  0.76152743
   0.03761834  0.27457245  0.71726684
   0.30772278  0.28601998  0.48847257
   0.69416286 -0.02085610  0.28635207
   0.57884808  0.81623249  0.72291919
   0.80583714  0.27085610 -0.03635207
   0.55401006  0.27790008  0.22498907
   0.19286432  0.47292412  0.29668425
   0.80666836  0.79486076  0.48183639
   0.06575286  0.77912689  0.24585188
   0.69333164  0.45513924  0.76816361
  -0.05401006 -0.02790008  0.02501093
   0.43424714  0.47087311  0.00414812
   0.30713568  0.77707588 -0.04668425
