FeMn_fcc                                
   1.00000000000000     
     3.5256704478820771   -1.7540627257519916   -1.7434343430197567
    -0.0077899037363307    3.4996154331156539   -3.4944825957318781
     3.5205742098319495    5.2420424895503723    5.2418213891978453
   Fe   Mn
     8     8
Direct
  0.2501692251978224  0.2549373417105623  0.2507083607881021
  0.2551764074356325  0.7476997047619035  0.2485978187677954
  0.7516663823026879  0.4953718282302046  0.2470513472435290
  0.2517435673571174 -0.0014358078785671  0.7450347945763204
  0.9982564326428831  0.2514358078785670  0.5049652054236796
  0.4983336176973119  0.7546281717697951  0.0029486527564710
  0.9948235925643677  0.5023002952380964  0.0014021812322045
 -0.0001692251978224 -0.0049373417105621  0.9992916392118978
  0.4971446625998074  0.5005493470538835  0.4955980248648020
  0.7534529462377919  0.9958962309232731  0.2560920761712115
  0.4858168277254662  0.0097829353141340  0.5002876880985954
  0.2577919561070255  0.4966202682422214  0.7523193159668344
  0.9922080438929742  0.7533797317577784  0.4976806840331657
  0.7641831722745340  0.2402170646858661  0.7497123119014046
  0.7528553374001932  0.7494506529461167  0.7544019751351981
  0.4965470537622084  0.2541037690767270 -0.0060920761712115
 
  0.00000000E+00  0.00000000E+00  0.00000000E+00
  0.00000000E+00  0.00000000E+00  0.00000000E+00
  0.00000000E+00  0.00000000E+00  0.00000000E+00
  0.00000000E+00  0.00000000E+00  0.00000000E+00
  0.00000000E+00  0.00000000E+00  0.00000000E+00
  0.00000000E+00  0.00000000E+00  0.00000000E+00
  0.00000000E+00  0.00000000E+00  0.00000000E+00
  0.00000000E+00  0.00000000E+00  0.00000000E+00
  0.00000000E+00  0.00000000E+00  0.00000000E+00
  0.00000000E+00  0.00000000E+00  0.00000000E+00
  0.00000000E+00  0.00000000E+00  0.00000000E+00
  0.00000000E+00  0.00000000E+00  0.00000000E+00
  0.00000000E+00  0.00000000E+00  0.00000000E+00
  0.00000000E+00  0.00000000E+00  0.00000000E+00
  0.00000000E+00  0.00000000E+00  0.00000000E+00
  0.00000000E+00  0.00000000E+00  0.00000000E+00
