CoCr_fccsqs16                           
   4.00000000000000     
     0.8867113523981534   -0.4455405272332363   -0.4340203332667615
     0.0026875448269170    0.8913286511169414   -0.8629846893351838
     0.8824251588911133    1.3377932111575823    1.2924653681302638
   Co   Cr
     8     8
Direct
  0.2551560554506356  0.2462488895086708  0.2499043574655468
  0.2510126402482637  0.7449495547594718  0.2511603579649157
  0.7536967924905466  0.4989477064993009  0.2489329467966211
  0.2525491495882803  0.0072058127408273  0.7501156057175549
 -0.0025491495882803  0.2427941872591726  0.4998843942824452
  0.4963032075094531  0.7510522935006995  0.0010670532033788
 -0.0010126402482638  0.5050504452405282 -0.0011603579649156
 -0.0051560554506356  0.0037511104913292  0.0000956425344531
  0.5002134918679887  0.4900864911853420  0.4851935363251361
  0.7594774004947010 -0.0020328891905390  0.2514073912143686
  0.4729863843629357 -0.0088270484190982  0.5008986187550939
  0.2661412998967085  0.5087954242858256  0.7477229625307995
 -0.0161412998967086  0.7412045757141743  0.5022770374692005
  0.7770136156370639  0.2588270484190983  0.7491013812449063
  0.7497865081320112  0.7599135088146580  0.7648064636748638
  0.4905225995052991  0.2520328891905390 -0.0014073912143686
 
  0.00000000E+00  0.00000000E+00  0.00000000E+00
  0.00000000E+00  0.00000000E+00  0.00000000E+00
  0.00000000E+00  0.00000000E+00  0.00000000E+00
  0.00000000E+00  0.00000000E+00  0.00000000E+00
  0.00000000E+00  0.00000000E+00  0.00000000E+00
  0.00000000E+00  0.00000000E+00  0.00000000E+00
  0.00000000E+00  0.00000000E+00  0.00000000E+00
  0.00000000E+00  0.00000000E+00  0.00000000E+00
  0.00000000E+00  0.00000000E+00  0.00000000E+00
  0.00000000E+00  0.00000000E+00  0.00000000E+00
  0.00000000E+00  0.00000000E+00  0.00000000E+00
  0.00000000E+00  0.00000000E+00  0.00000000E+00
  0.00000000E+00  0.00000000E+00  0.00000000E+00
  0.00000000E+00  0.00000000E+00  0.00000000E+00
  0.00000000E+00  0.00000000E+00  0.00000000E+00
  0.00000000E+00  0.00000000E+00  0.00000000E+00
