Ni3Fe_bccsqs16_7525                     
   1.00000000000000     
     2.5169330948557089   -7.0928319631864918    0.0219185631636086
     0.0219185631636085   -7.0928319631864918    2.5169330948557089
    -5.0227614677242727    0.0109229495849528   -5.0227614677242727
   Ni   Fe
    12     4
Direct
  0.7493224764677709  0.7493224764677709  0.3757533244053550
  0.2508435840739798  0.2508435840739798  0.1261861600524444
  0.6228875579960668  0.6228875579960668  0.5604470139900465
  0.8748877469056845  0.8748877469056845  0.6887579980526511
  0.1252565209710505  0.1252565209710505  0.3119157780121337
  0.3743051742497095  0.3743051742497095  0.4377711137528997
  0.7499072281667557  0.7499072281667557  0.8741822577203535
  0.0009029394984868  0.0009029394984868  0.0010543434009951
  0.2501398473014219  0.2501398473014219  0.6242205860206901
  0.4994918139109077  0.4994918139109077  0.7502621141761697
  0.1264869968016238  0.1264869968016238  0.8115690140497678
  0.3746605735300043  0.3746605735300043  0.9382953340596568
  0.9997345714734708  0.9997345714734708  0.5082953857078211
  0.5013777614337435  0.5013777614337435  0.2475918301029788
  0.6276907252362460  0.6276907252362460  0.0579441072447885
  0.8721044819830714  0.8721044819830714  0.1857536392512557
 
  0.00000000E+00  0.00000000E+00  0.00000000E+00
  0.00000000E+00  0.00000000E+00  0.00000000E+00
  0.00000000E+00  0.00000000E+00  0.00000000E+00
  0.00000000E+00  0.00000000E+00  0.00000000E+00
  0.00000000E+00  0.00000000E+00  0.00000000E+00
  0.00000000E+00  0.00000000E+00  0.00000000E+00
  0.00000000E+00  0.00000000E+00  0.00000000E+00
  0.00000000E+00  0.00000000E+00  0.00000000E+00
  0.00000000E+00  0.00000000E+00  0.00000000E+00
  0.00000000E+00  0.00000000E+00  0.00000000E+00
  0.00000000E+00  0.00000000E+00  0.00000000E+00
  0.00000000E+00  0.00000000E+00  0.00000000E+00
  0.00000000E+00  0.00000000E+00  0.00000000E+00
  0.00000000E+00  0.00000000E+00  0.00000000E+00
  0.00000000E+00  0.00000000E+00  0.00000000E+00
  0.00000000E+00  0.00000000E+00  0.00000000E+00
