CoCr3_bccsqs16_7525                     
   3.35000000000000     
     0.8445203944811355   -1.6876589847886565    0.0003831443027197
     0.0003831443027197   -1.6876589847886565    0.8445203944811355
    -1.6849421833675315    0.0024211624407548   -1.6849421833675315
   Co   Cr
     4    12
Direct
  0.0017892120353591  0.0017892120353591  0.4987761177276639
  0.5078203720382706  0.5078203720382706  0.2672471148034451
  0.6247880953260752  0.6247880953260752  0.0562879097645461
  0.8689800791346848  0.8689800791346848  0.1780118768930102
  0.7506135363081540  0.7506135363081540  0.3812468253894142
  0.2529110929952830  0.2529110929952830  0.1323571272135126
  0.6282881422934564  0.6282881422934564  0.5674042957813341
  0.8755741280596101  0.8755741280596101  0.6886861890063158
  0.1232809833712472  0.1232809833712472  0.3003669434028823
  0.3705422289032300  0.3705422289032300  0.4298177386896863
  0.7497673188134152  0.7497673188134152  0.8725959277350777
 -0.0016479218089624 -0.0016479218089624 -0.0000015522692681
  0.2464157593528639  0.2464157593528639  0.6247909792192088
  0.4956683857723468  0.4956683857723468  0.7405268622725645
  0.1276195431576369  0.1276195431576369  0.8215686798701850
  0.3775890442473291  0.3775890442473291  0.9403169645004220
 
  0.00000000E+00  0.00000000E+00  0.00000000E+00
  0.00000000E+00  0.00000000E+00  0.00000000E+00
  0.00000000E+00  0.00000000E+00  0.00000000E+00
  0.00000000E+00  0.00000000E+00  0.00000000E+00
  0.00000000E+00  0.00000000E+00  0.00000000E+00
  0.00000000E+00  0.00000000E+00  0.00000000E+00
  0.00000000E+00  0.00000000E+00  0.00000000E+00
  0.00000000E+00  0.00000000E+00  0.00000000E+00
  0.00000000E+00  0.00000000E+00  0.00000000E+00
  0.00000000E+00  0.00000000E+00  0.00000000E+00
  0.00000000E+00  0.00000000E+00  0.00000000E+00
  0.00000000E+00  0.00000000E+00  0.00000000E+00
  0.00000000E+00  0.00000000E+00  0.00000000E+00
  0.00000000E+00  0.00000000E+00  0.00000000E+00
  0.00000000E+00  0.00000000E+00  0.00000000E+00
  0.00000000E+00  0.00000000E+00  0.00000000E+00
